! ----  This file was generated with Climate Studio 2.3.9530.31237

Version,23.1;

Site:GroundTemperature:BuildingSurface,18,18,18,18,18,18,18,18,18,18,18,18;

Site:GroundReflectance,0.2,0.2,0.2,0.2,0.2,0.2,0.2,0.2,0.2,0.2,0.2,0.2;

Site:GroundReflectance:SnowModifier,
  1.0,                     !- Ground Reflected Solar Modifier
  1.0;                     !- Daylighting Ground Reflected Solar Modifier


Site:WeatherStation, 
10, !- Wind Sensor Height Above Ground {m} 
0.22, !- Wind Speed Profile Exponent {} 
370, !- Wind Speed Profile Boundary Layer Thickness {m} 
1.5; !- Air Temperature Sensor Height Above Ground {m}


ZoneAirContaminantBalance,
  Yes,                       !- Carbon Dioxide Concentration
  GlobalCO2,      !- Outdoor Carbon Dioxide Schedule Name
  No,                       !- Generic Contaminant Concentration
  Off; !- Outdoor Generic Contaminant Schedule Name


!-   ===========  ALL OBJECTS IN CLASS: RUNPERIOD ===========

RunPeriod,
  Climate Studio,                 !- Name
  1,                       !- Begin Month
  1,                       !- Begin Day of Month
  , !- Begin Year
  12,                      !- End Month
  31,                      !- End Day of Month
  , !- End Year
  Sunday,          !- Day of Week for Start Day
  No,                     !- Use Weather File Holidays and Special Days
  No,                     !- Use Weather File Daylight Saving Period
  No,                      !- Apply Weekend Holiday Rule
  Yes,                     !- Use Weather File Rain Indicators
  Yes,                     !- Use Weather File Snow Indicators
  No;                      !- Treat Weather as Actual

RunPeriodControl:DaylightSavingTime,2nd Sunday in March, 1st Sunday in November; !2007


!-   ===========  ALL OBJECTS IN CLASS: SIMULATIONCONTROL ===========

SimulationControl,
Yes, !- Do Zone Sizing Calculation
Yes, !- Do System Sizing Calculation
Yes, !- Do Plant Sizing Calculation
No, !- Run Simulation for Sizing Periods
Yes, !- Run Simulation for Weather File Run Periods
No, !- Do HVAC Sizing Simulation for Sizing Periods
2; !- Maximum Number of HVAC Sizing Simulation Passes


!-   ===========  ALL OBJECTS IN CLASS: CONVERGENCELIMITS ===========

ConvergenceLimits,
0, !- Minimum System Timestep (0 = same as zone timestep)
100, !- Maximum HVAC Iterations
3, !- Minimum Plant Iterations
10; !- Maximum Plant Iterations


!-   ===========  ALL OBJECTS IN CLASS: SCHEDULETYPELIMITS ===========

ScheduleTypeLimits,
  Any Number;              !- Name

ScheduleTypeLimits,
  Fraction,                !- Name
  0.0,                     !- Lower Limit Value {A3}
  1.0,                     !- Upper Limit Value {A3}
  CONTINUOUS;              !- Numeric Type

ScheduleTypeLimits,
  Temperature,             !- Name
  -60,                     !- Lower Limit Value
  200,                     !- Upper Limit Value
  CONTINUOUS;              !- Numeric Type

ScheduleTypeLimits,
  AnyNumber,               !- Name
  -1E11,                   !- Lower Limit Value
  1E11,                    !- Upper Limit Value
  CONTINUOUS;              !- Numeric Type

ScheduleTypeLimits,
  Control Type,            !- Name
  0,                       !- Lower Limit Value
  4,                       !- Upper Limit Value
  DISCRETE;                !- Numeric Type

ScheduleTypeLimits,
  On/Off,                  !- Name
  0,                       !- Lower Limit Value
  1,                       !- Upper Limit Value
  DISCRETE;                !- Numeric Type

Schedule:Constant,
  On,                      !- Name
  On/Off,                  !- Schedule Type Limits Name
  1;                       !- Value

Schedule:Constant,
  Off,                     !- Name
  On/Off,                  !- Schedule Type Limits Name
  0;                       !- Value


! -------------------------ERL SENSORS--------------------------

EnergyManagementSystem:Sensor,                                             
  OutdoorTemp, !- Name                                         
  Environment, !- Output:Variable Index Key Name               
  Site Outdoor Air Drybulb Temperature; !- Output:Variable Name

EnergyManagementSystem:Sensor,                                             
  OutdoorRelHumid, !- Name                                         
  Environment, !- Output:Variable Index Key Name               
  Site Outdoor Air Relative Humidity; !- Output:Variable Name

Output:EnergyManagementSystem,
  Verbose,                 !- Actuator Availability Dictionary Reporting
  Verbose,                 !- Internal Variable Availability Dictionary Reporting
  Verbose;                 !- EMS Runtime Language Debug Output Level

! Output:SQLite, Simple;



SizingPeriod:WeatherFileConditionType ,
    Extreme Summer Weather Period for Design, !- Name
    SummerExtreme , !- Period Selection
    SummerDesignDay , !- Day Type
    No, !- Use Weather File Daylight Saving Period
    No; !- Use Weather File Rain and Snow Indicators

SizingPeriod:WeatherFileConditionType ,
    Extreme Winter Weather Period for Design, !- Name
    WinterExtreme , !- Period Selection
    WinterDesignDay , !- Day Type
    No, !- Use Weather File Daylight Saving Period
    No; !- Use Weather File Rain and Snow Indicators

Sizing:Parameters,
    1.5,                     !- Heating Sizing Factor
    1.5;                     !- Cooling Sizing Factor




GlobalGeometryRules,
  LowerLeftCorner,         !- Starting Vertex Position
  CounterClockWise,        !- Vertex Entry Direction
  Relative;                !- Coordinate System

ShadowCalculation,
    PixelCounting,           !- Shading Calculation Method
    Periodic,                !- Shading Calculation Update Frequency Method
    20,                      !- Shading Calculation Update Frequency
    15000,                   !- Maximum Figures in Shadow Overlap Calculations
    ,                        !- Polygon Clipping Algorithm
    512,                     !- Pixel Counting Resolution
    SimpleSkyDiffuseModeling,  !- Sky Diffuse Modeling Algorithm
    Yes,                     !- Output External Shading Calculation Results
    No,                      !- Disable Self-Shading Within Shading Zone Groups
    No;                      !- Disable Self-Shading From Shading Zone Groups to Other Zones

Building,
    Building,                !- Name
    0,        !- North Axis {deg}
    Suburbs,       !- Terrain
    0.04,                    !- Loads Convergence Tolerance Value
    0.25,                     !- Temperature Convergence Tolerance Value {deltaC}
    FullExterior,            !- Solar Distribution
    30,                      !- Maximum Number of Warmup Days
    7;                       !- Minimum Number of Warmup Days



!-   ===========  ALL OBJECTS IN CLASS: HEATBALANCEALGORITHM ===========

HeatBalanceAlgorithm,
    ConductionTransferFunction,  !- Algorithm
    200,                     !- Surface Temperature Upper Limit {C}
    0.1,                     !- Minimum Surface Convection Heat Transfer Coefficient Value {W/m2-K}
    1000;                    !- Maximum Surface Convection Heat Transfer Coefficient Value {W/m2-K}

Timestep,6;

SurfaceConvectionAlgorithm:Inside,TARP;

SurfaceConvectionAlgorithm:Outside,DOE-2;

! ------------ CONSTRUCTIONS 

! defaultConstruction Type: Facade
Construction, defaultConstruction,
defaultMat_0.25_defaultConstruction;

Construction, defaultConstruction_FLIPPED,
defaultMat_0.25_defaultConstruction;



! Materials
!- Material: defaultMat Type: Concrete
Material, defaultMat_0.25_defaultConstruction ,                !- Material name 
 Rough,                                         !- Roughness
 0.25,   !- @defaultConstruction:defaultMat-Thickness@ [m]
 2.3,   !- @defaultConstruction:defaultMat-Conductivity@ [W/m-K]
 2400,   !- @defaultConstruction:defaultMat-Density@ [kg/m3]
 840,   !- @defaultConstruction:defaultMat-SpecificHeat@ [J/kg-K]
 0.9,   !- @defaultConstruction:defaultMat-ThermalEmittance@
 0.7,   !- @defaultConstruction:defaultMat-SolarAbsorptance@
 0.7;   !- @defaultConstruction:defaultMat-VisibleAbsorptance@



! 90.1-2019 Nonresidential CZ 0 Exterior Floor (Mass) Type: ExteriorFloor
Construction, 90.1-2019 Nonresidential CZ 0 Exterior Floor (Mass),
Stucco_0.025_90.1-2019 Nonresidential CZ 0 Exterior Floor (Mass),
Mineral Wool_0.005244967487677573_90.1-2019 Nonresidential CZ 0 Exterior Floor (Mass),
Concrete_0.102_90.1-2019 Nonresidential CZ 0 Exterior Floor (Mass),
Carpet_0.02_90.1-2019 Nonresidential CZ 0 Exterior Floor (Mass);

Construction, 90.1-2019 Nonresidential CZ 0 Exterior Floor (Mass)_FLIPPED,
Carpet_0.02_90.1-2019 Nonresidential CZ 0 Exterior Floor (Mass),
Concrete_0.102_90.1-2019 Nonresidential CZ 0 Exterior Floor (Mass),
Mineral Wool_0.005244967487677573_90.1-2019 Nonresidential CZ 0 Exterior Floor (Mass),
Stucco_0.025_90.1-2019 Nonresidential CZ 0 Exterior Floor (Mass);



! Materials
!- Material: Stucco Type: Plaster
Material, Stucco_0.025_90.1-2019 Nonresidential CZ 0 Exterior Floor (Mass) ,                !- Material name 
 Smooth,                                         !- Roughness
 0.025,   !- @90.1-2019 Nonresidential CZ 0 Exterior Floor (Mass):Stucco-Thickness@ [m]
 0.72,   !- @90.1-2019 Nonresidential CZ 0 Exterior Floor (Mass):Stucco-Conductivity@ [W/m-K]
 1856,   !- @90.1-2019 Nonresidential CZ 0 Exterior Floor (Mass):Stucco-Density@ [kg/m3]
 840,   !- @90.1-2019 Nonresidential CZ 0 Exterior Floor (Mass):Stucco-SpecificHeat@ [J/kg-K]
 0.9,   !- @90.1-2019 Nonresidential CZ 0 Exterior Floor (Mass):Stucco-ThermalEmittance@
 0.7,   !- @90.1-2019 Nonresidential CZ 0 Exterior Floor (Mass):Stucco-SolarAbsorptance@
 0.7;   !- @90.1-2019 Nonresidential CZ 0 Exterior Floor (Mass):Stucco-VisibleAbsorptance@

!- Material: Mineral Wool Type: Insulation
Material, Mineral Wool_0.005244967487677573_90.1-2019 Nonresidential CZ 0 Exterior Floor (Mass) ,                !- Material name 
 Rough,                                         !- Roughness
 0.005244967487677573,   !- @90.1-2019 Nonresidential CZ 0 Exterior Floor (Mass):Mineral Wool-Thickness@ [m]
 0.041,   !- @90.1-2019 Nonresidential CZ 0 Exterior Floor (Mass):Mineral Wool-Conductivity@ [W/m-K]
 155,   !- @90.1-2019 Nonresidential CZ 0 Exterior Floor (Mass):Mineral Wool-Density@ [kg/m3]
 1130,   !- @90.1-2019 Nonresidential CZ 0 Exterior Floor (Mass):Mineral Wool-SpecificHeat@ [J/kg-K]
 0.9,   !- @90.1-2019 Nonresidential CZ 0 Exterior Floor (Mass):Mineral Wool-ThermalEmittance@
 0.7,   !- @90.1-2019 Nonresidential CZ 0 Exterior Floor (Mass):Mineral Wool-SolarAbsorptance@
 0.7;   !- @90.1-2019 Nonresidential CZ 0 Exterior Floor (Mass):Mineral Wool-VisibleAbsorptance@

!- Material: Concrete Type: Concrete
Material, Concrete_0.102_90.1-2019 Nonresidential CZ 0 Exterior Floor (Mass) ,                !- Material name 
 Rough,                                         !- Roughness
 0.102,   !- @90.1-2019 Nonresidential CZ 0 Exterior Floor (Mass):Concrete-Thickness@ [m]
 2,   !- @90.1-2019 Nonresidential CZ 0 Exterior Floor (Mass):Concrete-Conductivity@ [W/m-K]
 2400,   !- @90.1-2019 Nonresidential CZ 0 Exterior Floor (Mass):Concrete-Density@ [kg/m3]
 950,   !- @90.1-2019 Nonresidential CZ 0 Exterior Floor (Mass):Concrete-SpecificHeat@ [J/kg-K]
 0.9,   !- @90.1-2019 Nonresidential CZ 0 Exterior Floor (Mass):Concrete-ThermalEmittance@
 0.7,   !- @90.1-2019 Nonresidential CZ 0 Exterior Floor (Mass):Concrete-SolarAbsorptance@
 0.7;   !- @90.1-2019 Nonresidential CZ 0 Exterior Floor (Mass):Concrete-VisibleAbsorptance@

!- Material: Carpet Type: Finishes
Material, Carpet_0.02_90.1-2019 Nonresidential CZ 0 Exterior Floor (Mass) ,                !- Material name 
 MediumRough,                                         !- Roughness
 0.02,   !- @90.1-2019 Nonresidential CZ 0 Exterior Floor (Mass):Carpet-Thickness@ [m]
 0.06,   !- @90.1-2019 Nonresidential CZ 0 Exterior Floor (Mass):Carpet-Conductivity@ [W/m-K]
 288,   !- @90.1-2019 Nonresidential CZ 0 Exterior Floor (Mass):Carpet-Density@ [kg/m3]
 1380,   !- @90.1-2019 Nonresidential CZ 0 Exterior Floor (Mass):Carpet-SpecificHeat@ [J/kg-K]
 0.9,   !- @90.1-2019 Nonresidential CZ 0 Exterior Floor (Mass):Carpet-ThermalEmittance@
 0.7,   !- @90.1-2019 Nonresidential CZ 0 Exterior Floor (Mass):Carpet-SolarAbsorptance@
 0.7;   !- @90.1-2019 Nonresidential CZ 0 Exterior Floor (Mass):Carpet-VisibleAbsorptance@



! 90.1-2019 Nonresidential CZ 0 Exterior Wall (Mass) Type: Facade
Construction, 90.1-2019 Nonresidential CZ 0 Exterior Wall (Mass),
Stucco_0.025_90.1-2019 Nonresidential CZ 0 Exterior Wall (Mass),
Concrete_0.203_90.1-2019 Nonresidential CZ 0 Exterior Wall (Mass),
Mineral Wool_0.006340168156952033_90.1-2019 Nonresidential CZ 0 Exterior Wall (Mass),
Plaster_0.013_90.1-2019 Nonresidential CZ 0 Exterior Wall (Mass);

Construction, 90.1-2019 Nonresidential CZ 0 Exterior Wall (Mass)_FLIPPED,
Plaster_0.013_90.1-2019 Nonresidential CZ 0 Exterior Wall (Mass),
Mineral Wool_0.006340168156952033_90.1-2019 Nonresidential CZ 0 Exterior Wall (Mass),
Concrete_0.203_90.1-2019 Nonresidential CZ 0 Exterior Wall (Mass),
Stucco_0.025_90.1-2019 Nonresidential CZ 0 Exterior Wall (Mass);



! Materials
!- Material: Stucco Type: Plaster
Material, Stucco_0.025_90.1-2019 Nonresidential CZ 0 Exterior Wall (Mass) ,                !- Material name 
 Smooth,                                         !- Roughness
 0.025,   !- @90.1-2019 Nonresidential CZ 0 Exterior Wall (Mass):Stucco-Thickness@ [m]
 0.72,   !- @90.1-2019 Nonresidential CZ 0 Exterior Wall (Mass):Stucco-Conductivity@ [W/m-K]
 1856,   !- @90.1-2019 Nonresidential CZ 0 Exterior Wall (Mass):Stucco-Density@ [kg/m3]
 840,   !- @90.1-2019 Nonresidential CZ 0 Exterior Wall (Mass):Stucco-SpecificHeat@ [J/kg-K]
 0.9,   !- @90.1-2019 Nonresidential CZ 0 Exterior Wall (Mass):Stucco-ThermalEmittance@
 0.7,   !- @90.1-2019 Nonresidential CZ 0 Exterior Wall (Mass):Stucco-SolarAbsorptance@
 0.7;   !- @90.1-2019 Nonresidential CZ 0 Exterior Wall (Mass):Stucco-VisibleAbsorptance@

!- Material: Concrete Type: Concrete
Material, Concrete_0.203_90.1-2019 Nonresidential CZ 0 Exterior Wall (Mass) ,                !- Material name 
 Rough,                                         !- Roughness
 0.203,   !- @90.1-2019 Nonresidential CZ 0 Exterior Wall (Mass):Concrete-Thickness@ [m]
 2,   !- @90.1-2019 Nonresidential CZ 0 Exterior Wall (Mass):Concrete-Conductivity@ [W/m-K]
 2400,   !- @90.1-2019 Nonresidential CZ 0 Exterior Wall (Mass):Concrete-Density@ [kg/m3]
 950,   !- @90.1-2019 Nonresidential CZ 0 Exterior Wall (Mass):Concrete-SpecificHeat@ [J/kg-K]
 0.9,   !- @90.1-2019 Nonresidential CZ 0 Exterior Wall (Mass):Concrete-ThermalEmittance@
 0.7,   !- @90.1-2019 Nonresidential CZ 0 Exterior Wall (Mass):Concrete-SolarAbsorptance@
 0.7;   !- @90.1-2019 Nonresidential CZ 0 Exterior Wall (Mass):Concrete-VisibleAbsorptance@

!- Material: Mineral Wool Type: Insulation
Material, Mineral Wool_0.006340168156952033_90.1-2019 Nonresidential CZ 0 Exterior Wall (Mass) ,                !- Material name 
 Rough,                                         !- Roughness
 0.006340168156952033,   !- @90.1-2019 Nonresidential CZ 0 Exterior Wall (Mass):Mineral Wool-Thickness@ [m]
 0.041,   !- @90.1-2019 Nonresidential CZ 0 Exterior Wall (Mass):Mineral Wool-Conductivity@ [W/m-K]
 155,   !- @90.1-2019 Nonresidential CZ 0 Exterior Wall (Mass):Mineral Wool-Density@ [kg/m3]
 1130,   !- @90.1-2019 Nonresidential CZ 0 Exterior Wall (Mass):Mineral Wool-SpecificHeat@ [J/kg-K]
 0.9,   !- @90.1-2019 Nonresidential CZ 0 Exterior Wall (Mass):Mineral Wool-ThermalEmittance@
 0.7,   !- @90.1-2019 Nonresidential CZ 0 Exterior Wall (Mass):Mineral Wool-SolarAbsorptance@
 0.7;   !- @90.1-2019 Nonresidential CZ 0 Exterior Wall (Mass):Mineral Wool-VisibleAbsorptance@

!- Material: Plaster Type: Screed
Material, Plaster_0.013_90.1-2019 Nonresidential CZ 0 Exterior Wall (Mass) ,                !- Material name 
 Rough,                                         !- Roughness
 0.013,   !- @90.1-2019 Nonresidential CZ 0 Exterior Wall (Mass):Plaster-Thickness@ [m]
 1,   !- @90.1-2019 Nonresidential CZ 0 Exterior Wall (Mass):Plaster-Conductivity@ [W/m-K]
 2000,   !- @90.1-2019 Nonresidential CZ 0 Exterior Wall (Mass):Plaster-Density@ [kg/m3]
 1130,   !- @90.1-2019 Nonresidential CZ 0 Exterior Wall (Mass):Plaster-SpecificHeat@ [J/kg-K]
 0.9,   !- @90.1-2019 Nonresidential CZ 0 Exterior Wall (Mass):Plaster-ThermalEmittance@
 0.7,   !- @90.1-2019 Nonresidential CZ 0 Exterior Wall (Mass):Plaster-SolarAbsorptance@
 0.7;   !- @90.1-2019 Nonresidential CZ 0 Exterior Wall (Mass):Plaster-VisibleAbsorptance@



! 90.1-2019 Nonresidential CZ 0 Exterior Roof (Mass) Type: Roof
Construction, 90.1-2019 Nonresidential CZ 0 Exterior Roof (Mass),
Vaporpermeable Felt_0.003_90.1-2019 Nonresidential CZ 0 Exterior Roof (Mass),
XPS Board_0.14713995500631277_90.1-2019 Nonresidential CZ 0 Exterior Roof (Mass),
Concrete_0.203_90.1-2019 Nonresidential CZ 0 Exterior Roof (Mass),
Acoustic Tile_0.005_90.1-2019 Nonresidential CZ 0 Exterior Roof (Mass);

Construction, 90.1-2019 Nonresidential CZ 0 Exterior Roof (Mass)_FLIPPED,
Acoustic Tile_0.005_90.1-2019 Nonresidential CZ 0 Exterior Roof (Mass),
Concrete_0.203_90.1-2019 Nonresidential CZ 0 Exterior Roof (Mass),
XPS Board_0.14713995500631277_90.1-2019 Nonresidential CZ 0 Exterior Roof (Mass),
Vaporpermeable Felt_0.003_90.1-2019 Nonresidential CZ 0 Exterior Roof (Mass);



! Materials
!- Material: Vaporpermeable Felt Type: Finishes
Material, Vaporpermeable Felt_0.003_90.1-2019 Nonresidential CZ 0 Exterior Roof (Mass) ,                !- Material name 
 Rough,                                         !- Roughness
 0.003,   !- @90.1-2019 Nonresidential CZ 0 Exterior Roof (Mass):Vaporpermeable Felt-Thickness@ [m]
 0.909090909,   !- @90.1-2019 Nonresidential CZ 0 Exterior Roof (Mass):Vaporpermeable Felt-Conductivity@ [W/m-K]
 0.5,   !- @90.1-2019 Nonresidential CZ 0 Exterior Roof (Mass):Vaporpermeable Felt-Density@ [kg/m3]
 1800,   !- @90.1-2019 Nonresidential CZ 0 Exterior Roof (Mass):Vaporpermeable Felt-SpecificHeat@ [J/kg-K]
 0.9,   !- @90.1-2019 Nonresidential CZ 0 Exterior Roof (Mass):Vaporpermeable Felt-ThermalEmittance@
 0.7,   !- @90.1-2019 Nonresidential CZ 0 Exterior Roof (Mass):Vaporpermeable Felt-SolarAbsorptance@
 0.7;   !- @90.1-2019 Nonresidential CZ 0 Exterior Roof (Mass):Vaporpermeable Felt-VisibleAbsorptance@

!- Material: XPS Board Type: Insulation
Material, XPS Board_0.14713995500631277_90.1-2019 Nonresidential CZ 0 Exterior Roof (Mass) ,                !- Material name 
 Rough,                                         !- Roughness
 0.14713995500631277,   !- @90.1-2019 Nonresidential CZ 0 Exterior Roof (Mass):XPS Board-Thickness@ [m]
 0.034,   !- @90.1-2019 Nonresidential CZ 0 Exterior Roof (Mass):XPS Board-Conductivity@ [W/m-K]
 35,   !- @90.1-2019 Nonresidential CZ 0 Exterior Roof (Mass):XPS Board-Density@ [kg/m3]
 1400,   !- @90.1-2019 Nonresidential CZ 0 Exterior Roof (Mass):XPS Board-SpecificHeat@ [J/kg-K]
 0.9,   !- @90.1-2019 Nonresidential CZ 0 Exterior Roof (Mass):XPS Board-ThermalEmittance@
 0.7,   !- @90.1-2019 Nonresidential CZ 0 Exterior Roof (Mass):XPS Board-SolarAbsorptance@
 0.7;   !- @90.1-2019 Nonresidential CZ 0 Exterior Roof (Mass):XPS Board-VisibleAbsorptance@

!- Material: Concrete Type: Concrete
Material, Concrete_0.203_90.1-2019 Nonresidential CZ 0 Exterior Roof (Mass) ,                !- Material name 
 Rough,                                         !- Roughness
 0.203,   !- @90.1-2019 Nonresidential CZ 0 Exterior Roof (Mass):Concrete-Thickness@ [m]
 2,   !- @90.1-2019 Nonresidential CZ 0 Exterior Roof (Mass):Concrete-Conductivity@ [W/m-K]
 2400,   !- @90.1-2019 Nonresidential CZ 0 Exterior Roof (Mass):Concrete-Density@ [kg/m3]
 950,   !- @90.1-2019 Nonresidential CZ 0 Exterior Roof (Mass):Concrete-SpecificHeat@ [J/kg-K]
 0.9,   !- @90.1-2019 Nonresidential CZ 0 Exterior Roof (Mass):Concrete-ThermalEmittance@
 0.7,   !- @90.1-2019 Nonresidential CZ 0 Exterior Roof (Mass):Concrete-SolarAbsorptance@
 0.7;   !- @90.1-2019 Nonresidential CZ 0 Exterior Roof (Mass):Concrete-VisibleAbsorptance@

!- Material: Acoustic Tile Type: Finishes
Material, Acoustic Tile_0.005_90.1-2019 Nonresidential CZ 0 Exterior Roof (Mass) ,                !- Material name 
 MediumSmooth,                                         !- Roughness
 0.005,   !- @90.1-2019 Nonresidential CZ 0 Exterior Roof (Mass):Acoustic Tile-Thickness@ [m]
 0.06,   !- @90.1-2019 Nonresidential CZ 0 Exterior Roof (Mass):Acoustic Tile-Conductivity@ [W/m-K]
 368,   !- @90.1-2019 Nonresidential CZ 0 Exterior Roof (Mass):Acoustic Tile-Density@ [kg/m3]
 590,   !- @90.1-2019 Nonresidential CZ 0 Exterior Roof (Mass):Acoustic Tile-SpecificHeat@ [J/kg-K]
 0.9,   !- @90.1-2019 Nonresidential CZ 0 Exterior Roof (Mass):Acoustic Tile-ThermalEmittance@
 0.7,   !- @90.1-2019 Nonresidential CZ 0 Exterior Roof (Mass):Acoustic Tile-SolarAbsorptance@
 0.7;   !- @90.1-2019 Nonresidential CZ 0 Exterior Roof (Mass):Acoustic Tile-VisibleAbsorptance@




! ------------ GLAZING  


Construction,
    DoublePaneClr,              !- Name
    DoublePaneClrWindow;

WindowMaterial:SimpleGlazingSystem,
DoublePaneClrWindow , !-Name
2.72 ,    !- @DoublePaneClr-UValue@
0.764 ,    !- @DoublePaneClr-SolarHeatGainCoefficient@
0.812;    !- @DoublePaneClr-VisibleTransmittance@


! ------------ SCHEDULES ------------



Schedule:Constant,
  AllOn,                     !- Name
  Fraction,                  !- Schedule Type Limits Name
  1;                       !- Value




Schedule:Constant,
  AirSpeed 0,                     !- Name
  AnyNumber,                  !- Schedule Type Limits Name
  0;                       !- Value



Schedule:Day:Hourly, a9e06d22-8af7-4182-98c2-1d8a89c17f5d, AnyNumber,412.77,412.77167,412.77333,412.775,412.77667,412.77833,412.78,412.78167,412.78333,412.785,412.78667,412.78833,412.79,412.79167,412.79333,412.795,412.79667,412.79833,412.8,412.80167,412.80333,412.805,412.80667,412.80833;

Schedule:Day:Hourly, dfea8acc-85d6-4a73-9f45-22cb3e50d15d, AnyNumber,412.81,412.81125,412.8125,412.81375,412.815,412.81625,412.8175,412.81875,412.82,412.82125,412.8225,412.82375,412.825,412.82625,412.8275,412.82875,412.83,412.83125,412.8325,412.83375,412.835,412.83625,412.8375,412.83875;

Schedule:Day:Hourly, 5ccb573f-bd39-4d23-a619-5107ba85c0fc, AnyNumber,412.84,412.84167,412.84333,412.845,412.84667,412.84833,412.85,412.85167,412.85333,412.855,412.85667,412.85833,412.86,412.86167,412.86333,412.865,412.86667,412.86833,412.87,412.87167,412.87333,412.875,412.87667,412.87833;

Schedule:Day:Hourly, 6486d3e3-4564-4e10-b915-bb8f345c3f30, AnyNumber,412.88,412.88125,412.8825,412.88375,412.885,412.88625,412.8875,412.88875,412.89,412.89125,412.8925,412.89375,412.895,412.89625,412.8975,412.89875,412.9,412.90125,412.9025,412.90375,412.905,412.90625,412.9075,412.90875;

Schedule:Day:Hourly, 270e02fd-12ab-4854-b813-f2e70f2aa958, AnyNumber,412.91,412.91167,412.91333,412.915,412.91667,412.91833,412.92,412.92167,412.92333,412.925,412.92667,412.92833,412.93,412.93167,412.93333,412.935,412.93667,412.93833,412.94,412.94167,412.94333,412.945,412.94667,412.94833;

Schedule:Day:Hourly, c1d899b9-1d22-4973-bcc7-674300fdd406, AnyNumber,412.95,412.95125,412.9525,412.95375,412.955,412.95625,412.9575,412.95875,412.96,412.96125,412.9625,412.96375,412.965,412.96625,412.9675,412.96875,412.97,412.97125,412.9725,412.97375,412.975,412.97625,412.9775,412.97875;

Schedule:Day:Hourly, 2335e58d-55d2-4c90-976a-2b431b8cf60c, AnyNumber,412.98,412.98125,412.9825,412.98375,412.985,412.98625,412.9875,412.98875,412.99,412.99125,412.9925,412.99375,412.995,412.99625,412.9975,412.99875,413,413.00125,413.0025,413.00375,413.005,413.00625,413.0075,413.00875;

Schedule:Day:Hourly, b0973099-acac-4ed6-a90c-d8610c6fbe36, AnyNumber,413.01,413.01125,413.0125,413.01375,413.015,413.01625,413.0175,413.01875,413.02,413.02125,413.0225,413.02375,413.025,413.02625,413.0275,413.02875,413.03,413.03125,413.0325,413.03375,413.035,413.03625,413.0375,413.03875;

Schedule:Day:Hourly, a3ce78ab-12c7-4a40-aa4c-cedac5f30d05, AnyNumber,413.04,413.04167,413.04333,413.045,413.04667,413.04833,413.05,413.05167,413.05333,413.055,413.05667,413.05833,413.06,413.06167,413.06333,413.065,413.06667,413.06833,413.07,413.07167,413.07333,413.075,413.07667,413.07833;

Schedule:Day:Hourly, b8460ecd-7d80-4272-abd5-ffca35feffba, AnyNumber,413.08,413.08125,413.0825,413.08375,413.085,413.08625,413.0875,413.08875,413.09,413.09125,413.0925,413.09375,413.095,413.09625,413.0975,413.09875,413.1,413.10125,413.1025,413.10375,413.105,413.10625,413.1075,413.10875;

Schedule:Day:Hourly, 306a3016-ca44-4f2f-b9da-c01598ee36ea, AnyNumber,413.11,413.11125,413.1125,413.11375,413.115,413.11625,413.1175,413.11875,413.12,413.12125,413.1225,413.12375,413.125,413.12625,413.1275,413.12875,413.13,413.13125,413.1325,413.13375,413.135,413.13625,413.1375,413.13875;

Schedule:Day:Hourly, b5e959d2-63fd-4051-be42-a986ed6f608f, AnyNumber,413.14,413.14125,413.1425,413.14375,413.145,413.14625,413.1475,413.14875,413.15,413.15125,413.1525,413.15375,413.155,413.15625,413.1575,413.15875,413.16,413.16125,413.1625,413.16375,413.165,413.16625,413.1675,413.16875;

Schedule:Day:Hourly, 2d5c764a-59bc-4ef0-af99-4b58e237a995, AnyNumber,413.17,413.17125,413.1725,413.17375,413.175,413.17625,413.1775,413.17875,413.18,413.18125,413.1825,413.18375,413.185,413.18625,413.1875,413.18875,413.19,413.19125,413.1925,413.19375,413.195,413.19625,413.1975,413.19875;

Schedule:Day:Hourly, e2a97813-08f9-4043-a9cf-578ad9f5d1e5, AnyNumber,413.2,413.20125,413.2025,413.20375,413.205,413.20625,413.2075,413.20875,413.21,413.21125,413.2125,413.21375,413.215,413.21625,413.2175,413.21875,413.22,413.22125,413.2225,413.22375,413.225,413.22625,413.2275,413.22875;

Schedule:Day:Hourly, d5927dfb-83a4-4449-956c-54f6e4d970ab, AnyNumber,413.23,413.23083,413.23167,413.2325,413.23333,413.23417,413.235,413.23583,413.23667,413.2375,413.23833,413.23917,413.24,413.24083,413.24167,413.2425,413.24333,413.24417,413.245,413.24583,413.24667,413.2475,413.24833,413.24917;

Schedule:Day:Hourly, 9039f513-a932-4800-a808-c9cf7a8081d1, AnyNumber,413.25,413.25125,413.2525,413.25375,413.255,413.25625,413.2575,413.25875,413.26,413.26125,413.2625,413.26375,413.265,413.26625,413.2675,413.26875,413.27,413.27125,413.2725,413.27375,413.275,413.27625,413.2775,413.27875;

Schedule:Day:Hourly, 66cfd670-d788-4df0-8ec7-34d32b3740be, AnyNumber,413.28,413.28125,413.2825,413.28375,413.285,413.28625,413.2875,413.28875,413.29,413.29125,413.2925,413.29375,413.295,413.29625,413.2975,413.29875,413.3,413.30125,413.3025,413.30375,413.305,413.30625,413.3075,413.30875;

Schedule:Day:Hourly, 542dfe33-e6bc-4b54-82cf-a9b9df61636f, AnyNumber,413.31,413.31083,413.31167,413.3125,413.31333,413.31417,413.315,413.31583,413.31667,413.3175,413.31833,413.31917,413.32,413.32083,413.32167,413.3225,413.32333,413.32417,413.325,413.32583,413.32667,413.3275,413.32833,413.32917;

Schedule:Day:Hourly, 3d8d357a-bf02-469f-949c-da44387f06ba, AnyNumber,413.33,413.33125,413.3325,413.33375,413.335,413.33625,413.3375,413.33875,413.34,413.34125,413.3425,413.34375,413.345,413.34625,413.3475,413.34875,413.35,413.35125,413.3525,413.35375,413.355,413.35625,413.3575,413.35875;

Schedule:Day:Hourly, 73f77af5-994d-46d9-a9dd-6f2be636d7fd, AnyNumber,413.36,413.36083,413.36167,413.3625,413.36333,413.36417,413.365,413.36583,413.36667,413.3675,413.36833,413.36917,413.37,413.37083,413.37167,413.3725,413.37333,413.37417,413.375,413.37583,413.37667,413.3775,413.37833,413.37917;

Schedule:Day:Hourly, 9243ea99-364b-4271-b9f2-8f998dcf0317, AnyNumber,413.38,413.38125,413.3825,413.38375,413.385,413.38625,413.3875,413.38875,413.39,413.39125,413.3925,413.39375,413.395,413.39625,413.3975,413.39875,413.4,413.40125,413.4025,413.40375,413.405,413.40625,413.4075,413.40875;

Schedule:Day:Hourly, 8aca0c45-cd02-4e78-bf82-039dd290ad50, AnyNumber,413.41,413.41083,413.41167,413.4125,413.41333,413.41417,413.415,413.41583,413.41667,413.4175,413.41833,413.41917,413.42,413.42083,413.42167,413.4225,413.42333,413.42417,413.425,413.42583,413.42667,413.4275,413.42833,413.42917;

Schedule:Day:Hourly, 0403e98a-46d3-4764-aef1-279c5ee4c7a5, AnyNumber,413.43,413.43083,413.43167,413.4325,413.43333,413.43417,413.435,413.43583,413.43667,413.4375,413.43833,413.43917,413.44,413.44083,413.44167,413.4425,413.44333,413.44417,413.445,413.44583,413.44667,413.4475,413.44833,413.44917;

Schedule:Day:Hourly, 6ce810d2-181e-480e-bc27-866a6a050c62, AnyNumber,413.45,413.45083,413.45167,413.4525,413.45333,413.45417,413.455,413.45583,413.45667,413.4575,413.45833,413.45917,413.46,413.46083,413.46167,413.4625,413.46333,413.46417,413.465,413.46583,413.46667,413.4675,413.46833,413.46917;

Schedule:Day:Hourly, d1de37aa-89b7-451d-b7bf-575ed572c8b0, AnyNumber,413.47,413.47083,413.47167,413.4725,413.47333,413.47417,413.475,413.47583,413.47667,413.4775,413.47833,413.47917,413.48,413.48083,413.48167,413.4825,413.48333,413.48417,413.485,413.48583,413.48667,413.4875,413.48833,413.48917;

Schedule:Day:Hourly, b0074a06-3f1b-4be7-9659-42e346d5854a, AnyNumber,413.49,413.49083,413.49167,413.4925,413.49333,413.49417,413.495,413.49583,413.49667,413.4975,413.49833,413.49917,413.5,413.50083,413.50167,413.5025,413.50333,413.50417,413.505,413.50583,413.50667,413.5075,413.50833,413.50917;

Schedule:Day:Hourly, 20edc90e-2009-4ec0-be76-37dcb7f47cdb, AnyNumber,413.51,413.51042,413.51083,413.51125,413.51167,413.51208,413.5125,413.51292,413.51333,413.51375,413.51417,413.51458,413.515,413.51542,413.51583,413.51625,413.51667,413.51708,413.5175,413.51792,413.51833,413.51875,413.51917,413.51958;

Schedule:Day:Hourly, 6353680f-e2f2-4752-989b-1181812c317c, AnyNumber,413.52,413.52083,413.52167,413.5225,413.52333,413.52417,413.525,413.52583,413.52667,413.5275,413.52833,413.52917,413.53,413.53083,413.53167,413.5325,413.53333,413.53417,413.535,413.53583,413.53667,413.5375,413.53833,413.53917;

Schedule:Day:Hourly, ee03d8cb-7e0a-4045-95b6-e525834e44ff, AnyNumber,413.54,413.54083,413.54167,413.5425,413.54333,413.54417,413.545,413.54583,413.54667,413.5475,413.54833,413.54917,413.55,413.55083,413.55167,413.5525,413.55333,413.55417,413.555,413.55583,413.55667,413.5575,413.55833,413.55917;

Schedule:Day:Hourly, d9eb0c2c-4f37-4165-82c5-2794f36ad3e9, AnyNumber,413.56,413.56042,413.56083,413.56125,413.56167,413.56208,413.5625,413.56292,413.56333,413.56375,413.56417,413.56458,413.565,413.56542,413.56583,413.56625,413.56667,413.56708,413.5675,413.56792,413.56833,413.56875,413.56917,413.56958;

Schedule:Day:Hourly, e25244c8-e9de-4599-9f21-d0e72d1f32f4, AnyNumber,413.57,413.57042,413.57083,413.57125,413.57167,413.57208,413.5725,413.57292,413.57333,413.57375,413.57417,413.57458,413.575,413.57542,413.57583,413.57625,413.57667,413.57708,413.5775,413.57792,413.57833,413.57875,413.57917,413.57958;

Schedule:Day:Hourly, 0e6c7ce1-7402-478a-87ca-531a93bfb8dc, AnyNumber,413.58,413.58083,413.58167,413.5825,413.58333,413.58417,413.585,413.58583,413.58667,413.5875,413.58833,413.58917,413.59,413.59083,413.59167,413.5925,413.59333,413.59417,413.595,413.59583,413.59667,413.5975,413.59833,413.59917;

Schedule:Day:Hourly, 552b88ae-3758-4042-b87b-4f4eb4b191dd, AnyNumber,413.6,413.60042,413.60083,413.60125,413.60167,413.60208,413.6025,413.60292,413.60333,413.60375,413.60417,413.60458,413.605,413.60542,413.60583,413.60625,413.60667,413.60708,413.6075,413.60792,413.60833,413.60875,413.60917,413.60958;

Schedule:Day:Hourly, 781dcbe0-40bd-4535-9153-f525ed58297d, AnyNumber,413.61,413.61042,413.61083,413.61125,413.61167,413.61208,413.6125,413.61292,413.61333,413.61375,413.61417,413.61458,413.615,413.61542,413.61583,413.61625,413.61667,413.61708,413.6175,413.61792,413.61833,413.61875,413.61917,413.61958;

Schedule:Day:Hourly, f7a8c397-8412-4e8c-b9f6-0e0ced01b01d, AnyNumber,413.62,413.62042,413.62083,413.62125,413.62167,413.62208,413.6225,413.62292,413.62333,413.62375,413.62417,413.62458,413.625,413.62542,413.62583,413.62625,413.62667,413.62708,413.6275,413.62792,413.62833,413.62875,413.62917,413.62958;

Schedule:Day:Hourly, e9ff5f89-5a07-4c09-91ef-aea48740e1d6, AnyNumber,413.63,413.63042,413.63083,413.63125,413.63167,413.63208,413.6325,413.63292,413.63333,413.63375,413.63417,413.63458,413.635,413.63542,413.63583,413.63625,413.63667,413.63708,413.6375,413.63792,413.63833,413.63875,413.63917,413.63958;

Schedule:Day:Hourly, dcc306d6-bb73-4121-95a3-e21055cbcefb, AnyNumber,413.64,413.64042,413.64083,413.64125,413.64167,413.64208,413.6425,413.64292,413.64333,413.64375,413.64417,413.64458,413.645,413.64542,413.64583,413.64625,413.64667,413.64708,413.6475,413.64792,413.64833,413.64875,413.64917,413.64958;

Schedule:Day:Hourly, 03be40b4-89af-4d65-a6d9-3e0fa8c5f02f, AnyNumber,413.65,413.65042,413.65083,413.65125,413.65167,413.65208,413.6525,413.65292,413.65333,413.65375,413.65417,413.65458,413.655,413.65542,413.65583,413.65625,413.65667,413.65708,413.6575,413.65792,413.65833,413.65875,413.65917,413.65958;

Schedule:Day:Hourly, 0ae72525-2c7e-4398-b66f-31618c63029d, AnyNumber,413.66,413.66,413.66,413.66,413.66,413.66,413.66,413.66,413.66,413.66,413.66,413.66,413.66,413.66,413.66,413.66,413.66,413.66,413.66,413.66,413.66,413.66,413.66,413.66;

Schedule:Day:Hourly, 7ccf8795-cdee-4db3-8389-1f56377caf55, AnyNumber,413.66,413.66042,413.66083,413.66125,413.66167,413.66208,413.6625,413.66292,413.66333,413.66375,413.66417,413.66458,413.665,413.66542,413.66583,413.66625,413.66667,413.66708,413.6675,413.66792,413.66833,413.66875,413.66917,413.66958;

Schedule:Day:Hourly, 14f97083-caf1-49e2-b53b-e50c4ee68118, AnyNumber,413.67,413.67042,413.67083,413.67125,413.67167,413.67208,413.6725,413.67292,413.67333,413.67375,413.67417,413.67458,413.675,413.67542,413.67583,413.67625,413.67667,413.67708,413.6775,413.67792,413.67833,413.67875,413.67917,413.67958;

Schedule:Day:Hourly, 99a08e01-ac80-4449-954a-6ed502b7a610, AnyNumber,413.68,413.68,413.68,413.68,413.68,413.68,413.68,413.68,413.68,413.68,413.68,413.68,413.68,413.68,413.68,413.68,413.68,413.68,413.68,413.68,413.68,413.68,413.68,413.68;

Schedule:Day:Hourly, ba5766d7-4565-4a70-91dd-d01a475af5a8, AnyNumber,413.68,413.68042,413.68083,413.68125,413.68167,413.68208,413.6825,413.68292,413.68333,413.68375,413.68417,413.68458,413.685,413.68542,413.68583,413.68625,413.68667,413.68708,413.6875,413.68792,413.68833,413.68875,413.68917,413.68958;

Schedule:Day:Hourly, 82460426-55c8-4b03-b2a3-2b7ee2347f43, AnyNumber,413.69,413.69,413.69,413.69,413.69,413.69,413.69,413.69,413.69,413.69,413.69,413.69,413.69,413.69,413.69,413.69,413.69,413.69,413.69,413.69,413.69,413.69,413.69,413.69;

Schedule:Day:Hourly, 644570ec-f8ae-4e5a-a5f3-9ca7452d5d36, AnyNumber,413.69,413.69042,413.69083,413.69125,413.69167,413.69208,413.6925,413.69292,413.69333,413.69375,413.69417,413.69458,413.695,413.69542,413.69583,413.69625,413.69667,413.69708,413.6975,413.69792,413.69833,413.69875,413.69917,413.69958;

Schedule:Day:Hourly, 0af91715-7660-4225-86d2-0c0a352a58ad, AnyNumber,413.7,413.7,413.7,413.7,413.7,413.7,413.7,413.7,413.7,413.7,413.7,413.7,413.7,413.7,413.7,413.7,413.7,413.7,413.7,413.7,413.7,413.7,413.7,413.7;

Schedule:Day:Hourly, a432f7ec-cfb0-44a8-8b62-92eaa53be850, AnyNumber,413.7,413.70042,413.70083,413.70125,413.70167,413.70208,413.7025,413.70292,413.70333,413.70375,413.70417,413.70458,413.705,413.70542,413.70583,413.70625,413.70667,413.70708,413.7075,413.70792,413.70833,413.70875,413.70917,413.70958;

Schedule:Day:Hourly, ad9110c6-a952-4ad2-a9d3-e726b36b3985, AnyNumber,413.71,413.71,413.71,413.71,413.71,413.71,413.71,413.71,413.71,413.71,413.71,413.71,413.71,413.71,413.71,413.71,413.71,413.71,413.71,413.71,413.71,413.71,413.71,413.71;

Schedule:Day:Hourly, daef46d6-2616-48e7-9613-b693a2624434, AnyNumber,413.71,413.71042,413.71083,413.71125,413.71167,413.71208,413.7125,413.71292,413.71333,413.71375,413.71417,413.71458,413.715,413.71542,413.71583,413.71625,413.71667,413.71708,413.7175,413.71792,413.71833,413.71875,413.71917,413.71958;

Schedule:Day:Hourly, 00439ad4-58cf-4de5-a95f-1b37733226ce, AnyNumber,413.72,413.72,413.72,413.72,413.72,413.72,413.72,413.72,413.72,413.72,413.72,413.72,413.72,413.72,413.72,413.72,413.72,413.72,413.72,413.72,413.72,413.72,413.72,413.72;

Schedule:Day:Hourly, bdcec74d-b81b-4abf-9a93-b10534686e2c, AnyNumber,413.72,413.72042,413.72083,413.72125,413.72167,413.72208,413.7225,413.72292,413.72333,413.72375,413.72417,413.72458,413.725,413.72542,413.72583,413.72625,413.72667,413.72708,413.7275,413.72792,413.72833,413.72875,413.72917,413.72958;

Schedule:Day:Hourly, e46d4536-5ba1-4534-b0de-aac6f58cfabc, AnyNumber,413.73,413.73,413.73,413.73,413.73,413.73,413.73,413.73,413.73,413.73,413.73,413.73,413.73,413.73,413.73,413.73,413.73,413.73,413.73,413.73,413.73,413.73,413.73,413.73;

Schedule:Day:Hourly, 316e3c84-e71e-48fb-881b-31ebcf452729, AnyNumber,413.73,413.73042,413.73083,413.73125,413.73167,413.73208,413.7325,413.73292,413.73333,413.73375,413.73417,413.73458,413.735,413.73542,413.73583,413.73625,413.73667,413.73708,413.7375,413.73792,413.73833,413.73875,413.73917,413.73958;

Schedule:Day:Hourly, 36476ee1-e163-48d7-b56a-00b9ede619ae, AnyNumber,413.74,413.74,413.74,413.74,413.74,413.74,413.74,413.74,413.74,413.74,413.74,413.74,413.74,413.74,413.74,413.74,413.74,413.74,413.74,413.74,413.74,413.74,413.74,413.74;

Schedule:Day:Hourly, c279ab83-5c2a-4453-92dd-b0a9019c26b1, AnyNumber,413.74,413.74042,413.74083,413.74125,413.74167,413.74208,413.7425,413.74292,413.74333,413.74375,413.74417,413.74458,413.745,413.74542,413.74583,413.74625,413.74667,413.74708,413.7475,413.74792,413.74833,413.74875,413.74917,413.74958;

Schedule:Day:Hourly, 4128d981-5d79-4e21-8ded-0049e7e90892, AnyNumber,413.75,413.75,413.75,413.75,413.75,413.75,413.75,413.75,413.75,413.75,413.75,413.75,413.75,413.75,413.75,413.75,413.75,413.75,413.75,413.75,413.75,413.75,413.75,413.75;

Schedule:Day:Hourly, 21dd2429-a8e6-47db-a6f6-0c2fcf37c5a1, AnyNumber,413.75,413.75042,413.75083,413.75125,413.75167,413.75208,413.7525,413.75292,413.75333,413.75375,413.75417,413.75458,413.755,413.75542,413.75583,413.75625,413.75667,413.75708,413.7575,413.75792,413.75833,413.75875,413.75917,413.75958;

Schedule:Day:Hourly, b3e9d66b-a87a-4e1d-a274-87d4ca5c6ef5, AnyNumber,413.76,413.76,413.76,413.76,413.76,413.76,413.76,413.76,413.76,413.76,413.76,413.76,413.76,413.76,413.76,413.76,413.76,413.76,413.76,413.76,413.76,413.76,413.76,413.76;

Schedule:Day:Hourly, ee083fcd-b60d-4d86-ab99-26a0e0864cb1, AnyNumber,413.76,413.76042,413.76083,413.76125,413.76167,413.76208,413.7625,413.76292,413.76333,413.76375,413.76417,413.76458,413.765,413.76542,413.76583,413.76625,413.76667,413.76708,413.7675,413.76792,413.76833,413.76875,413.76917,413.76958;

Schedule:Day:Hourly, df3a2a3f-26dc-43b9-9466-4745128a8f04, AnyNumber,413.77,413.77042,413.77083,413.77125,413.77167,413.77208,413.7725,413.77292,413.77333,413.77375,413.77417,413.77458,413.775,413.77542,413.77583,413.77625,413.77667,413.77708,413.7775,413.77792,413.77833,413.77875,413.77917,413.77958;

Schedule:Day:Hourly, 4dc5c3eb-a214-4cfe-8a3d-b7704b148938, AnyNumber,413.78,413.78,413.78,413.78,413.78,413.78,413.78,413.78,413.78,413.78,413.78,413.78,413.78,413.78,413.78,413.78,413.78,413.78,413.78,413.78,413.78,413.78,413.78,413.78;

Schedule:Day:Hourly, d8a4b967-7e72-44d9-8d18-94953d59b9bb, AnyNumber,413.78,413.78042,413.78083,413.78125,413.78167,413.78208,413.7825,413.78292,413.78333,413.78375,413.78417,413.78458,413.785,413.78542,413.78583,413.78625,413.78667,413.78708,413.7875,413.78792,413.78833,413.78875,413.78917,413.78958;

Schedule:Day:Hourly, c953cd8e-3fa2-4c6d-9e4d-2f29ff39e343, AnyNumber,413.79,413.79042,413.79083,413.79125,413.79167,413.79208,413.7925,413.79292,413.79333,413.79375,413.79417,413.79458,413.795,413.79542,413.79583,413.79625,413.79667,413.79708,413.7975,413.79792,413.79833,413.79875,413.79917,413.79958;

Schedule:Day:Hourly, 4b771118-06f4-4ae4-858d-3f07783afb75, AnyNumber,413.8,413.80042,413.80083,413.80125,413.80167,413.80208,413.8025,413.80292,413.80333,413.80375,413.80417,413.80458,413.805,413.80542,413.80583,413.80625,413.80667,413.80708,413.8075,413.80792,413.80833,413.80875,413.80917,413.80958;

Schedule:Day:Hourly, bee441f9-e78d-42f6-bd4a-212ff2502e1e, AnyNumber,413.81,413.81042,413.81083,413.81125,413.81167,413.81208,413.8125,413.81292,413.81333,413.81375,413.81417,413.81458,413.815,413.81542,413.81583,413.81625,413.81667,413.81708,413.8175,413.81792,413.81833,413.81875,413.81917,413.81958;

Schedule:Day:Hourly, 7f16b4d6-3b7c-453a-926f-5dbf6d5843b2, AnyNumber,413.82,413.82042,413.82083,413.82125,413.82167,413.82208,413.8225,413.82292,413.82333,413.82375,413.82417,413.82458,413.825,413.82542,413.82583,413.82625,413.82667,413.82708,413.8275,413.82792,413.82833,413.82875,413.82917,413.82958;

Schedule:Day:Hourly, 3321420f-1064-462b-b2c8-b3e72f4b84cd, AnyNumber,413.83,413.83042,413.83083,413.83125,413.83167,413.83208,413.8325,413.83292,413.83333,413.83375,413.83417,413.83458,413.835,413.83542,413.83583,413.83625,413.83667,413.83708,413.8375,413.83792,413.83833,413.83875,413.83917,413.83958;

Schedule:Day:Hourly, 023d5181-697e-4e1e-9bae-11b044ad13c2, AnyNumber,413.84,413.84042,413.84083,413.84125,413.84167,413.84208,413.8425,413.84292,413.84333,413.84375,413.84417,413.84458,413.845,413.84542,413.84583,413.84625,413.84667,413.84708,413.8475,413.84792,413.84833,413.84875,413.84917,413.84958;

Schedule:Day:Hourly, 68151919-b116-4e56-9037-86ccbab2562f, AnyNumber,413.85,413.85042,413.85083,413.85125,413.85167,413.85208,413.8525,413.85292,413.85333,413.85375,413.85417,413.85458,413.855,413.85542,413.85583,413.85625,413.85667,413.85708,413.8575,413.85792,413.85833,413.85875,413.85917,413.85958;

Schedule:Day:Hourly, a9f0df60-4323-43c6-83db-ddc20d0a3005, AnyNumber,413.86,413.86042,413.86083,413.86125,413.86167,413.86208,413.8625,413.86292,413.86333,413.86375,413.86417,413.86458,413.865,413.86542,413.86583,413.86625,413.86667,413.86708,413.8675,413.86792,413.86833,413.86875,413.86917,413.86958;

Schedule:Day:Hourly, 6984837f-3d1e-4b55-8e22-610707a76bb7, AnyNumber,413.87,413.87042,413.87083,413.87125,413.87167,413.87208,413.8725,413.87292,413.87333,413.87375,413.87417,413.87458,413.875,413.87542,413.87583,413.87625,413.87667,413.87708,413.8775,413.87792,413.87833,413.87875,413.87917,413.87958;

Schedule:Day:Hourly, f55d7656-879c-45c7-948e-665083c27779, AnyNumber,413.88,413.88042,413.88083,413.88125,413.88167,413.88208,413.8825,413.88292,413.88333,413.88375,413.88417,413.88458,413.885,413.88542,413.88583,413.88625,413.88667,413.88708,413.8875,413.88792,413.88833,413.88875,413.88917,413.88958;

Schedule:Day:Hourly, abfa283d-92c4-43ec-b2fb-0b270f8c31db, AnyNumber,413.89,413.89083,413.89167,413.8925,413.89333,413.89417,413.895,413.89583,413.89667,413.8975,413.89833,413.89917,413.9,413.90083,413.90167,413.9025,413.90333,413.90417,413.905,413.90583,413.90667,413.9075,413.90833,413.90917;

Schedule:Day:Hourly, 12a1b69a-e7c2-439e-93f6-0e318c3d7c46, AnyNumber,413.91,413.91042,413.91083,413.91125,413.91167,413.91208,413.9125,413.91292,413.91333,413.91375,413.91417,413.91458,413.915,413.91542,413.91583,413.91625,413.91667,413.91708,413.9175,413.91792,413.91833,413.91875,413.91917,413.91958;

Schedule:Day:Hourly, 4e6524d2-b652-4370-85ed-708ff0776a5c, AnyNumber,413.92,413.92042,413.92083,413.92125,413.92167,413.92208,413.9225,413.92292,413.92333,413.92375,413.92417,413.92458,413.925,413.92542,413.92583,413.92625,413.92667,413.92708,413.9275,413.92792,413.92833,413.92875,413.92917,413.92958;

Schedule:Day:Hourly, 11a741dd-0581-4e0b-b94a-62ebdd3be7b2, AnyNumber,413.93,413.93083,413.93167,413.9325,413.93333,413.93417,413.935,413.93583,413.93667,413.9375,413.93833,413.93917,413.94,413.94083,413.94167,413.9425,413.94333,413.94417,413.945,413.94583,413.94667,413.9475,413.94833,413.94917;

Schedule:Day:Hourly, c45d74a7-756c-4a18-acf2-c80798bbe97c, AnyNumber,413.95,413.95042,413.95083,413.95125,413.95167,413.95208,413.9525,413.95292,413.95333,413.95375,413.95417,413.95458,413.955,413.95542,413.95583,413.95625,413.95667,413.95708,413.9575,413.95792,413.95833,413.95875,413.95917,413.95958;

Schedule:Day:Hourly, 6482e17a-d425-4aa5-bf2f-7ec30b8cb2d9, AnyNumber,413.96,413.96083,413.96167,413.9625,413.96333,413.96417,413.965,413.96583,413.96667,413.9675,413.96833,413.96917,413.97,413.97083,413.97167,413.9725,413.97333,413.97417,413.975,413.97583,413.97667,413.9775,413.97833,413.97917;

Schedule:Day:Hourly, 742404d5-256d-4e1d-8552-877db929bf1a, AnyNumber,413.98,413.98042,413.98083,413.98125,413.98167,413.98208,413.9825,413.98292,413.98333,413.98375,413.98417,413.98458,413.985,413.98542,413.98583,413.98625,413.98667,413.98708,413.9875,413.98792,413.98833,413.98875,413.98917,413.98958;

Schedule:Day:Hourly, e6b58673-6c2c-41a9-bc62-38576531b064, AnyNumber,413.99,413.99083,413.99167,413.9925,413.99333,413.99417,413.995,413.99583,413.99667,413.9975,413.99833,413.99917,414,414.00083,414.00167,414.0025,414.00333,414.00417,414.005,414.00583,414.00667,414.0075,414.00833,414.00917;

Schedule:Day:Hourly, 8a1acb23-a0de-410f-b6ee-9ee9aed81b03, AnyNumber,414.01,414.01083,414.01167,414.0125,414.01333,414.01417,414.015,414.01583,414.01667,414.0175,414.01833,414.01917,414.02,414.02083,414.02167,414.0225,414.02333,414.02417,414.025,414.02583,414.02667,414.0275,414.02833,414.02917;

Schedule:Day:Hourly, eca3a4d0-ce1a-4dcd-b1f9-7ea00815c9c3, AnyNumber,414.03,414.03042,414.03083,414.03125,414.03167,414.03208,414.0325,414.03292,414.03333,414.03375,414.03417,414.03458,414.035,414.03542,414.03583,414.03625,414.03667,414.03708,414.0375,414.03792,414.03833,414.03875,414.03917,414.03958;

Schedule:Day:Hourly, 88d72d4d-55c4-49c2-87e4-21da5d984e20, AnyNumber,414.04,414.04083,414.04167,414.0425,414.04333,414.04417,414.045,414.04583,414.04667,414.0475,414.04833,414.04917,414.05,414.05083,414.05167,414.0525,414.05333,414.05417,414.055,414.05583,414.05667,414.0575,414.05833,414.05917;

Schedule:Day:Hourly, 1d74eabc-0e8b-4a79-89cb-61ff4ada8f79, AnyNumber,414.06,414.06083,414.06167,414.0625,414.06333,414.06417,414.065,414.06583,414.06667,414.0675,414.06833,414.06917,414.07,414.07083,414.07167,414.0725,414.07333,414.07417,414.075,414.07583,414.07667,414.0775,414.07833,414.07917;

Schedule:Day:Hourly, 56cbed0c-4200-44fa-bc95-ccf20dff1129, AnyNumber,414.08,414.08042,414.08083,414.08125,414.08167,414.08208,414.0825,414.08292,414.08333,414.08375,414.08417,414.08458,414.085,414.08542,414.08583,414.08625,414.08667,414.08708,414.0875,414.08792,414.08833,414.08875,414.08917,414.08958;

Schedule:Day:Hourly, 1f6e4217-093f-4c69-bd3a-e785b51d840d, AnyNumber,414.09,414.09083,414.09167,414.0925,414.09333,414.09417,414.095,414.09583,414.09667,414.0975,414.09833,414.09917,414.1,414.10083,414.10167,414.1025,414.10333,414.10417,414.105,414.10583,414.10667,414.1075,414.10833,414.10917;

Schedule:Day:Hourly, 1750b521-6f24-42fb-a85a-01e9bc7195ce, AnyNumber,414.11,414.11083,414.11167,414.1125,414.11333,414.11417,414.115,414.11583,414.11667,414.1175,414.11833,414.11917,414.12,414.12083,414.12167,414.1225,414.12333,414.12417,414.125,414.12583,414.12667,414.1275,414.12833,414.12917;

Schedule:Day:Hourly, c25fb954-4a37-4206-8b81-040e502b6c59, AnyNumber,414.13,414.13083,414.13167,414.1325,414.13333,414.13417,414.135,414.13583,414.13667,414.1375,414.13833,414.13917,414.14,414.14083,414.14167,414.1425,414.14333,414.14417,414.145,414.14583,414.14667,414.1475,414.14833,414.14917;

Schedule:Day:Hourly, 3fd5758f-6449-4869-9052-9ed5a5467add, AnyNumber,414.15,414.15042,414.15083,414.15125,414.15167,414.15208,414.1525,414.15292,414.15333,414.15375,414.15417,414.15458,414.155,414.15542,414.15583,414.15625,414.15667,414.15708,414.1575,414.15792,414.15833,414.15875,414.15917,414.15958;

Schedule:Day:Hourly, 855c54e8-7e8e-459c-a6e4-d98030aecb91, AnyNumber,414.16,414.16083,414.16167,414.1625,414.16333,414.16417,414.165,414.16583,414.16667,414.1675,414.16833,414.16917,414.17,414.17083,414.17167,414.1725,414.17333,414.17417,414.175,414.17583,414.17667,414.1775,414.17833,414.17917;

Schedule:Day:Hourly, 32afd8d1-fbc3-481c-ae92-082298433b0e, AnyNumber,414.18,414.18083,414.18167,414.1825,414.18333,414.18417,414.185,414.18583,414.18667,414.1875,414.18833,414.18917,414.19,414.19083,414.19167,414.1925,414.19333,414.19417,414.195,414.19583,414.19667,414.1975,414.19833,414.19917;

Schedule:Day:Hourly, ccb886c6-fd94-42e6-a932-dee5dab82ae6, AnyNumber,414.2,414.20083,414.20167,414.2025,414.20333,414.20417,414.205,414.20583,414.20667,414.2075,414.20833,414.20917,414.21,414.21083,414.21167,414.2125,414.21333,414.21417,414.215,414.21583,414.21667,414.2175,414.21833,414.21917;

Schedule:Day:Hourly, 7caab2fe-2924-4a36-a6f5-7755379dfc7f, AnyNumber,414.22,414.22042,414.22083,414.22125,414.22167,414.22208,414.2225,414.22292,414.22333,414.22375,414.22417,414.22458,414.225,414.22542,414.22583,414.22625,414.22667,414.22708,414.2275,414.22792,414.22833,414.22875,414.22917,414.22958;

Schedule:Day:Hourly, 4bb0228f-f4ed-42f4-8762-36cdce83560b, AnyNumber,414.23,414.23083,414.23167,414.2325,414.23333,414.23417,414.235,414.23583,414.23667,414.2375,414.23833,414.23917,414.24,414.24083,414.24167,414.2425,414.24333,414.24417,414.245,414.24583,414.24667,414.2475,414.24833,414.24917;

Schedule:Day:Hourly, af0e19d6-44ff-4e56-846c-3742baf1c71d, AnyNumber,414.25,414.25083,414.25167,414.2525,414.25333,414.25417,414.255,414.25583,414.25667,414.2575,414.25833,414.25917,414.26,414.26083,414.26167,414.2625,414.26333,414.26417,414.265,414.26583,414.26667,414.2675,414.26833,414.26917;

Schedule:Day:Hourly, fefa940d-ca2a-4b43-8f78-59e35cf25b83, AnyNumber,414.27,414.27042,414.27083,414.27125,414.27167,414.27208,414.2725,414.27292,414.27333,414.27375,414.27417,414.27458,414.275,414.27542,414.27583,414.27625,414.27667,414.27708,414.2775,414.27792,414.27833,414.27875,414.27917,414.27958;

Schedule:Day:Hourly, 558a4be7-ecc1-45ae-8b91-0de10d2cc19b, AnyNumber,414.28,414.28083,414.28167,414.2825,414.28333,414.28417,414.285,414.28583,414.28667,414.2875,414.28833,414.28917,414.29,414.29083,414.29167,414.2925,414.29333,414.29417,414.295,414.29583,414.29667,414.2975,414.29833,414.29917;

Schedule:Day:Hourly, fc2a7414-e59e-4ec9-9c65-308bdf76d091, AnyNumber,414.3,414.30083,414.30167,414.3025,414.30333,414.30417,414.305,414.30583,414.30667,414.3075,414.30833,414.30917,414.31,414.31083,414.31167,414.3125,414.31333,414.31417,414.315,414.31583,414.31667,414.3175,414.31833,414.31917;

Schedule:Day:Hourly, f41591d4-129d-4871-a6a0-416872f7401f, AnyNumber,414.32,414.32042,414.32083,414.32125,414.32167,414.32208,414.3225,414.32292,414.32333,414.32375,414.32417,414.32458,414.325,414.32542,414.32583,414.32625,414.32667,414.32708,414.3275,414.32792,414.32833,414.32875,414.32917,414.32958;

Schedule:Day:Hourly, 6b1bc1e4-6687-4d48-98a8-d1a2545e24b1, AnyNumber,414.33,414.33083,414.33167,414.3325,414.33333,414.33417,414.335,414.33583,414.33667,414.3375,414.33833,414.33917,414.34,414.34083,414.34167,414.3425,414.34333,414.34417,414.345,414.34583,414.34667,414.3475,414.34833,414.34917;

Schedule:Day:Hourly, 956c2152-c519-409a-8c5e-0be828d9080b, AnyNumber,414.35,414.35042,414.35083,414.35125,414.35167,414.35208,414.3525,414.35292,414.35333,414.35375,414.35417,414.35458,414.355,414.35542,414.35583,414.35625,414.35667,414.35708,414.3575,414.35792,414.35833,414.35875,414.35917,414.35958;

Schedule:Day:Hourly, bcc78c88-ae94-4103-ac19-49e0235baaf2, AnyNumber,414.36,414.36083,414.36167,414.3625,414.36333,414.36417,414.365,414.36583,414.36667,414.3675,414.36833,414.36917,414.37,414.37083,414.37167,414.3725,414.37333,414.37417,414.375,414.37583,414.37667,414.3775,414.37833,414.37917;

Schedule:Day:Hourly, 4fd9298e-fed3-42d0-9cfc-df82c40bb556, AnyNumber,414.38,414.38042,414.38083,414.38125,414.38167,414.38208,414.3825,414.38292,414.38333,414.38375,414.38417,414.38458,414.385,414.38542,414.38583,414.38625,414.38667,414.38708,414.3875,414.38792,414.38833,414.38875,414.38917,414.38958;

Schedule:Day:Hourly, 4f3134d4-dbda-4235-bffb-87c2b508ee6c, AnyNumber,414.39,414.39042,414.39083,414.39125,414.39167,414.39208,414.3925,414.39292,414.39333,414.39375,414.39417,414.39458,414.395,414.39542,414.39583,414.39625,414.39667,414.39708,414.3975,414.39792,414.39833,414.39875,414.39917,414.39958;

Schedule:Day:Hourly, 9b62f987-dccb-4150-9f2f-1959e3198ea9, AnyNumber,414.4,414.40083,414.40167,414.4025,414.40333,414.40417,414.405,414.40583,414.40667,414.4075,414.40833,414.40917,414.41,414.41083,414.41167,414.4125,414.41333,414.41417,414.415,414.41583,414.41667,414.4175,414.41833,414.41917;

Schedule:Day:Hourly, 1506f8f2-5b60-4296-be2c-95753d95c3a1, AnyNumber,414.42,414.42042,414.42083,414.42125,414.42167,414.42208,414.4225,414.42292,414.42333,414.42375,414.42417,414.42458,414.425,414.42542,414.42583,414.42625,414.42667,414.42708,414.4275,414.42792,414.42833,414.42875,414.42917,414.42958;

Schedule:Day:Hourly, c475c9c3-5376-4528-a95b-7c300dc14040, AnyNumber,414.43,414.43042,414.43083,414.43125,414.43167,414.43208,414.4325,414.43292,414.43333,414.43375,414.43417,414.43458,414.435,414.43542,414.43583,414.43625,414.43667,414.43708,414.4375,414.43792,414.43833,414.43875,414.43917,414.43958;

Schedule:Day:Hourly, 6f409680-f8ef-484b-a223-5f7fa9c2f6a5, AnyNumber,414.44,414.44042,414.44083,414.44125,414.44167,414.44208,414.4425,414.44292,414.44333,414.44375,414.44417,414.44458,414.445,414.44542,414.44583,414.44625,414.44667,414.44708,414.4475,414.44792,414.44833,414.44875,414.44917,414.44958;

Schedule:Day:Hourly, 2948b88e-edb8-4591-98cb-412e4311f179, AnyNumber,414.45,414.45042,414.45083,414.45125,414.45167,414.45208,414.4525,414.45292,414.45333,414.45375,414.45417,414.45458,414.455,414.45542,414.45583,414.45625,414.45667,414.45708,414.4575,414.45792,414.45833,414.45875,414.45917,414.45958;

Schedule:Day:Hourly, a9282c2a-9d4c-4387-8038-8b26c49d8db8, AnyNumber,414.46,414.46042,414.46083,414.46125,414.46167,414.46208,414.4625,414.46292,414.46333,414.46375,414.46417,414.46458,414.465,414.46542,414.46583,414.46625,414.46667,414.46708,414.4675,414.46792,414.46833,414.46875,414.46917,414.46958;

Schedule:Day:Hourly, 1798806b-483a-46ee-8d46-286b2048a74e, AnyNumber,414.47,414.47042,414.47083,414.47125,414.47167,414.47208,414.4725,414.47292,414.47333,414.47375,414.47417,414.47458,414.475,414.47542,414.47583,414.47625,414.47667,414.47708,414.4775,414.47792,414.47833,414.47875,414.47917,414.47958;

Schedule:Day:Hourly, ab6d8f55-cee8-4471-9876-8e7b58119c3c, AnyNumber,414.48,414.48042,414.48083,414.48125,414.48167,414.48208,414.4825,414.48292,414.48333,414.48375,414.48417,414.48458,414.485,414.48542,414.48583,414.48625,414.48667,414.48708,414.4875,414.48792,414.48833,414.48875,414.48917,414.48958;

Schedule:Day:Hourly, cab03255-058d-4394-8654-49eeeb69fcb2, AnyNumber,414.49,414.49042,414.49083,414.49125,414.49167,414.49208,414.4925,414.49292,414.49333,414.49375,414.49417,414.49458,414.495,414.49542,414.49583,414.49625,414.49667,414.49708,414.4975,414.49792,414.49833,414.49875,414.49917,414.49958;

Schedule:Day:Hourly, 3a5b4273-59f0-49ff-8164-043d14a01766, AnyNumber,414.5,414.50042,414.50083,414.50125,414.50167,414.50208,414.5025,414.50292,414.50333,414.50375,414.50417,414.50458,414.505,414.50542,414.50583,414.50625,414.50667,414.50708,414.5075,414.50792,414.50833,414.50875,414.50917,414.50958;

Schedule:Day:Hourly, 035fb30c-e112-4573-a606-a297ce86dbf0, AnyNumber,414.51,414.51,414.51,414.51,414.51,414.51,414.51,414.51,414.51,414.51,414.51,414.51,414.51,414.51,414.51,414.51,414.51,414.51,414.51,414.51,414.51,414.51,414.51,414.51;

Schedule:Day:Hourly, 1751632a-83cb-4cbf-a5b8-a80b483ad48a, AnyNumber,414.51,414.51042,414.51083,414.51125,414.51167,414.51208,414.5125,414.51292,414.51333,414.51375,414.51417,414.51458,414.515,414.51542,414.51583,414.51625,414.51667,414.51708,414.5175,414.51792,414.51833,414.51875,414.51917,414.51958;

Schedule:Day:Hourly, 8bd32ad5-b957-408c-a10a-5c9c5eec5b3b, AnyNumber,414.52,414.52,414.52,414.52,414.52,414.52,414.52,414.52,414.52,414.52,414.52,414.52,414.52,414.52,414.52,414.52,414.52,414.52,414.52,414.52,414.52,414.52,414.52,414.52;

Schedule:Day:Hourly, 0f5dddb8-c6d2-4e5d-b2ec-38ba8d864252, AnyNumber,414.52,414.52042,414.52083,414.52125,414.52167,414.52208,414.5225,414.52292,414.52333,414.52375,414.52417,414.52458,414.525,414.52542,414.52583,414.52625,414.52667,414.52708,414.5275,414.52792,414.52833,414.52875,414.52917,414.52958;

Schedule:Day:Hourly, 3b85c4ef-d3b7-4d1b-82d5-d515b83dabdf, AnyNumber,414.53,414.53,414.53,414.53,414.53,414.53,414.53,414.53,414.53,414.53,414.53,414.53,414.53,414.53,414.53,414.53,414.53,414.53,414.53,414.53,414.53,414.53,414.53,414.53;

Schedule:Day:Hourly, f16cec83-b224-4bbe-97fc-e1d1c6cac2b4, AnyNumber,414.53,414.53042,414.53083,414.53125,414.53167,414.53208,414.5325,414.53292,414.53333,414.53375,414.53417,414.53458,414.535,414.53542,414.53583,414.53625,414.53667,414.53708,414.5375,414.53792,414.53833,414.53875,414.53917,414.53958;

Schedule:Day:Hourly, af8c9a32-216c-4225-8d27-1679cca88730, AnyNumber,414.54,414.54,414.54,414.54,414.54,414.54,414.54,414.54,414.54,414.54,414.54,414.54,414.54,414.54,414.54,414.54,414.54,414.54,414.54,414.54,414.54,414.54,414.54,414.54;

Schedule:Day:Hourly, 46315810-7baa-4aa1-977d-ea460a9d77d0, AnyNumber,414.54,414.53958,414.53917,414.53875,414.53833,414.53792,414.5375,414.53708,414.53667,414.53625,414.53583,414.53542,414.535,414.53458,414.53417,414.53375,414.53333,414.53292,414.5325,414.53208,414.53167,414.53125,414.53083,414.53042;

Schedule:Day:Hourly, 05fa05ad-480d-4815-90f1-eb90c312a810, AnyNumber,414.53,414.52958,414.52917,414.52875,414.52833,414.52792,414.5275,414.52708,414.52667,414.52625,414.52583,414.52542,414.525,414.52458,414.52417,414.52375,414.52333,414.52292,414.5225,414.52208,414.52167,414.52125,414.52083,414.52042;

Schedule:Day:Hourly, 934527e2-1440-40b7-94e7-4e0d4183d97a, AnyNumber,414.52,414.51958,414.51917,414.51875,414.51833,414.51792,414.5175,414.51708,414.51667,414.51625,414.51583,414.51542,414.515,414.51458,414.51417,414.51375,414.51333,414.51292,414.5125,414.51208,414.51167,414.51125,414.51083,414.51042;

Schedule:Day:Hourly, 54067366-b3ef-4872-a987-dbc1987c33a4, AnyNumber,414.51,414.50958,414.50917,414.50875,414.50833,414.50792,414.5075,414.50708,414.50667,414.50625,414.50583,414.50542,414.505,414.50458,414.50417,414.50375,414.50333,414.50292,414.5025,414.50208,414.50167,414.50125,414.50083,414.50042;

Schedule:Day:Hourly, 0b04c89e-e3ab-4085-8361-9fb05e46b865, AnyNumber,414.5,414.49958,414.49917,414.49875,414.49833,414.49792,414.4975,414.49708,414.49667,414.49625,414.49583,414.49542,414.495,414.49458,414.49417,414.49375,414.49333,414.49292,414.4925,414.49208,414.49167,414.49125,414.49083,414.49042;

Schedule:Day:Hourly, 9825f8e2-f318-4e13-b0d9-fa8566074cef, AnyNumber,414.49,414.48958,414.48917,414.48875,414.48833,414.48792,414.4875,414.48708,414.48667,414.48625,414.48583,414.48542,414.485,414.48458,414.48417,414.48375,414.48333,414.48292,414.4825,414.48208,414.48167,414.48125,414.48083,414.48042;

Schedule:Day:Hourly, 80a26800-fa58-4aa4-8ed9-f0ce1167ac04, AnyNumber,414.48,414.47958,414.47917,414.47875,414.47833,414.47792,414.4775,414.47708,414.47667,414.47625,414.47583,414.47542,414.475,414.47458,414.47417,414.47375,414.47333,414.47292,414.4725,414.47208,414.47167,414.47125,414.47083,414.47042;

Schedule:Day:Hourly, 4f93fc5e-4157-46e0-b715-8a8972e39852, AnyNumber,414.47,414.46917,414.46833,414.4675,414.46667,414.46583,414.465,414.46417,414.46333,414.4625,414.46167,414.46083,414.46,414.45917,414.45833,414.4575,414.45667,414.45583,414.455,414.45417,414.45333,414.4525,414.45167,414.45083;

Schedule:Day:Hourly, 5604619a-79de-4cac-871b-810af992b037, AnyNumber,414.45,414.44958,414.44917,414.44875,414.44833,414.44792,414.4475,414.44708,414.44667,414.44625,414.44583,414.44542,414.445,414.44458,414.44417,414.44375,414.44333,414.44292,414.4425,414.44208,414.44167,414.44125,414.44083,414.44042;

Schedule:Day:Hourly, b3896666-8b29-478f-844b-89d463ec7aaf, AnyNumber,414.44,414.43917,414.43833,414.4375,414.43667,414.43583,414.435,414.43417,414.43333,414.4325,414.43167,414.43083,414.43,414.42917,414.42833,414.4275,414.42667,414.42583,414.425,414.42417,414.42333,414.4225,414.42167,414.42083;

Schedule:Day:Hourly, 9e8f7d1f-e878-4ed4-a496-e903c4aa0e9b, AnyNumber,414.42,414.41958,414.41917,414.41875,414.41833,414.41792,414.4175,414.41708,414.41667,414.41625,414.41583,414.41542,414.415,414.41458,414.41417,414.41375,414.41333,414.41292,414.4125,414.41208,414.41167,414.41125,414.41083,414.41042;

Schedule:Day:Hourly, a88f1294-e31b-462a-a6aa-c2c48c08e80e, AnyNumber,414.41,414.40917,414.40833,414.4075,414.40667,414.40583,414.405,414.40417,414.40333,414.4025,414.40167,414.40083,414.4,414.39917,414.39833,414.3975,414.39667,414.39583,414.395,414.39417,414.39333,414.3925,414.39167,414.39083;

Schedule:Day:Hourly, b24b984a-50f2-473b-90db-30f113aa3a79, AnyNumber,414.39,414.38917,414.38833,414.3875,414.38667,414.38583,414.385,414.38417,414.38333,414.3825,414.38167,414.38083,414.38,414.37917,414.37833,414.3775,414.37667,414.37583,414.375,414.37417,414.37333,414.3725,414.37167,414.37083;

Schedule:Day:Hourly, d346a6af-5ee4-48dd-b873-88715b42af94, AnyNumber,414.37,414.36917,414.36833,414.3675,414.36667,414.36583,414.365,414.36417,414.36333,414.3625,414.36167,414.36083,414.36,414.35917,414.35833,414.3575,414.35667,414.35583,414.355,414.35417,414.35333,414.3525,414.35167,414.35083;

Schedule:Day:Hourly, 3e7d56d0-809d-492c-9bc9-d49e06421314, AnyNumber,414.35,414.34917,414.34833,414.3475,414.34667,414.34583,414.345,414.34417,414.34333,414.3425,414.34167,414.34083,414.34,414.33917,414.33833,414.3375,414.33667,414.33583,414.335,414.33417,414.33333,414.3325,414.33167,414.33083;

Schedule:Day:Hourly, 5c127eec-5fab-41ae-b50c-3fc2cc3d119d, AnyNumber,414.33,414.32875,414.3275,414.32625,414.325,414.32375,414.3225,414.32125,414.32,414.31875,414.3175,414.31625,414.315,414.31375,414.3125,414.31125,414.31,414.30875,414.3075,414.30625,414.305,414.30375,414.3025,414.30125;

Schedule:Day:Hourly, 2c4ba2c7-fa39-45d3-a81f-297a77be86de, AnyNumber,414.3,414.29917,414.29833,414.2975,414.29667,414.29583,414.295,414.29417,414.29333,414.2925,414.29167,414.29083,414.29,414.28917,414.28833,414.2875,414.28667,414.28583,414.285,414.28417,414.28333,414.2825,414.28167,414.28083;

Schedule:Day:Hourly, cfc8267d-f4f7-405f-b730-bd117d724b5b, AnyNumber,414.28,414.27875,414.2775,414.27625,414.275,414.27375,414.2725,414.27125,414.27,414.26875,414.2675,414.26625,414.265,414.26375,414.2625,414.26125,414.26,414.25875,414.2575,414.25625,414.255,414.25375,414.2525,414.25125;

Schedule:Day:Hourly, fd42f398-d260-4908-923c-fa5cfa708bef, AnyNumber,414.25,414.24875,414.2475,414.24625,414.245,414.24375,414.2425,414.24125,414.24,414.23875,414.2375,414.23625,414.235,414.23375,414.2325,414.23125,414.23,414.22875,414.2275,414.22625,414.225,414.22375,414.2225,414.22125;

Schedule:Day:Hourly, de72ce23-d243-4510-9bdf-ba79bf178578, AnyNumber,414.22,414.21875,414.2175,414.21625,414.215,414.21375,414.2125,414.21125,414.21,414.20875,414.2075,414.20625,414.205,414.20375,414.2025,414.20125,414.2,414.19875,414.1975,414.19625,414.195,414.19375,414.1925,414.19125;

Schedule:Day:Hourly, ae00655a-34e5-4794-ae3c-c49e22c524f2, AnyNumber,414.19,414.18875,414.1875,414.18625,414.185,414.18375,414.1825,414.18125,414.18,414.17875,414.1775,414.17625,414.175,414.17375,414.1725,414.17125,414.17,414.16875,414.1675,414.16625,414.165,414.16375,414.1625,414.16125;

Schedule:Day:Hourly, d7ec2e9f-993c-416c-b2c6-7501d07fef40, AnyNumber,414.16,414.15875,414.1575,414.15625,414.155,414.15375,414.1525,414.15125,414.15,414.14875,414.1475,414.14625,414.145,414.14375,414.1425,414.14125,414.14,414.13875,414.1375,414.13625,414.135,414.13375,414.1325,414.13125;

Schedule:Day:Hourly, e528e896-9467-4d56-9348-23be5276b749, AnyNumber,414.13,414.12833,414.12667,414.125,414.12333,414.12167,414.12,414.11833,414.11667,414.115,414.11333,414.11167,414.11,414.10833,414.10667,414.105,414.10333,414.10167,414.1,414.09833,414.09667,414.095,414.09333,414.09167;

Schedule:Day:Hourly, 405e6efe-7fec-4e96-a1cb-d5127cb878da, AnyNumber,414.09,414.08875,414.0875,414.08625,414.085,414.08375,414.0825,414.08125,414.08,414.07875,414.0775,414.07625,414.075,414.07375,414.0725,414.07125,414.07,414.06875,414.0675,414.06625,414.065,414.06375,414.0625,414.06125;

Schedule:Day:Hourly, 38c7fdec-e5b5-46b8-b142-ec2bc3742990, AnyNumber,414.06,414.05833,414.05667,414.055,414.05333,414.05167,414.05,414.04833,414.04667,414.045,414.04333,414.04167,414.04,414.03833,414.03667,414.035,414.03333,414.03167,414.03,414.02833,414.02667,414.025,414.02333,414.02167;

Schedule:Day:Hourly, 54790983-0e36-4826-958c-477155234bd2, AnyNumber,414.02,414.01833,414.01667,414.015,414.01333,414.01167,414.01,414.00833,414.00667,414.005,414.00333,414.00167,414,413.99833,413.99667,413.995,413.99333,413.99167,413.99,413.98833,413.98667,413.985,413.98333,413.98167;

Schedule:Day:Hourly, c5289f64-11a4-47b3-9913-f1c4670bf613, AnyNumber,413.98,413.97833,413.97667,413.975,413.97333,413.97167,413.97,413.96833,413.96667,413.965,413.96333,413.96167,413.96,413.95833,413.95667,413.955,413.95333,413.95167,413.95,413.94833,413.94667,413.945,413.94333,413.94167;

Schedule:Day:Hourly, 2d9aa1e0-daf1-4400-b4f9-553b60ebbb41, AnyNumber,413.94,413.93792,413.93583,413.93375,413.93167,413.92958,413.9275,413.92542,413.92333,413.92125,413.91917,413.91708,413.915,413.91292,413.91083,413.90875,413.90667,413.90458,413.9025,413.90042,413.89833,413.89625,413.89417,413.89208;

Schedule:Day:Hourly, de5eacf1-f22a-4fbe-930d-0b26c9490edb, AnyNumber,413.89,413.88833,413.88667,413.885,413.88333,413.88167,413.88,413.87833,413.87667,413.875,413.87333,413.87167,413.87,413.86833,413.86667,413.865,413.86333,413.86167,413.86,413.85833,413.85667,413.855,413.85333,413.85167;

Schedule:Day:Hourly, 2dd398da-1b55-4f01-a31d-f99a1a359154, AnyNumber,413.85,413.84792,413.84583,413.84375,413.84167,413.83958,413.8375,413.83542,413.83333,413.83125,413.82917,413.82708,413.825,413.82292,413.82083,413.81875,413.81667,413.81458,413.8125,413.81042,413.80833,413.80625,413.80417,413.80208;

Schedule:Day:Hourly, 9632c0af-fe57-4bc1-8cf6-f3bb37cfff0e, AnyNumber,413.8,413.79792,413.79583,413.79375,413.79167,413.78958,413.7875,413.78542,413.78333,413.78125,413.77917,413.77708,413.775,413.77292,413.77083,413.76875,413.76667,413.76458,413.7625,413.76042,413.75833,413.75625,413.75417,413.75208;

Schedule:Day:Hourly, bc1af20f-3b48-48a1-a0fb-9ee7e880d76e, AnyNumber,413.75,413.74792,413.74583,413.74375,413.74167,413.73958,413.7375,413.73542,413.73333,413.73125,413.72917,413.72708,413.725,413.72292,413.72083,413.71875,413.71667,413.71458,413.7125,413.71042,413.70833,413.70625,413.70417,413.70208;

Schedule:Day:Hourly, cc83c0f0-5898-4db3-9034-6d463db2ec07, AnyNumber,413.7,413.69792,413.69583,413.69375,413.69167,413.68958,413.6875,413.68542,413.68333,413.68125,413.67917,413.67708,413.675,413.67292,413.67083,413.66875,413.66667,413.66458,413.6625,413.66042,413.65833,413.65625,413.65417,413.65208;

Schedule:Day:Hourly, 59429e58-1cb0-47a1-b272-60b0c76279df, AnyNumber,413.65,413.6475,413.645,413.6425,413.64,413.6375,413.635,413.6325,413.63,413.6275,413.625,413.6225,413.62,413.6175,413.615,413.6125,413.61,413.6075,413.605,413.6025,413.6,413.5975,413.595,413.5925;

Schedule:Day:Hourly, 7b096cd5-a9e6-440c-ac3d-f5ee8421ca5d, AnyNumber,413.59,413.58792,413.58583,413.58375,413.58167,413.57958,413.5775,413.57542,413.57333,413.57125,413.56917,413.56708,413.565,413.56292,413.56083,413.55875,413.55667,413.55458,413.5525,413.55042,413.54833,413.54625,413.54417,413.54208;

Schedule:Day:Hourly, b411f728-10ac-42ea-aa14-1225f65d33b5, AnyNumber,413.54,413.5375,413.535,413.5325,413.53,413.5275,413.525,413.5225,413.52,413.5175,413.515,413.5125,413.51,413.5075,413.505,413.5025,413.5,413.4975,413.495,413.4925,413.49,413.4875,413.485,413.4825;

Schedule:Day:Hourly, c4590dbc-583c-450f-802b-b5f7d778f369, AnyNumber,413.48,413.4775,413.475,413.4725,413.47,413.4675,413.465,413.4625,413.46,413.4575,413.455,413.4525,413.45,413.4475,413.445,413.4425,413.44,413.4375,413.435,413.4325,413.43,413.4275,413.425,413.4225;

Schedule:Day:Hourly, 3e645fdd-c93e-439a-906d-2aaff7202d5a, AnyNumber,413.42,413.4175,413.415,413.4125,413.41,413.4075,413.405,413.4025,413.4,413.3975,413.395,413.3925,413.39,413.3875,413.385,413.3825,413.38,413.3775,413.375,413.3725,413.37,413.3675,413.365,413.3625;

Schedule:Day:Hourly, 944dc0b0-ad63-4880-8697-63dcdf128bf6, AnyNumber,413.36,413.35708,413.35417,413.35125,413.34833,413.34542,413.3425,413.33958,413.33667,413.33375,413.33083,413.32792,413.325,413.32208,413.31917,413.31625,413.31333,413.31042,413.3075,413.30458,413.30167,413.29875,413.29583,413.29292;

Schedule:Day:Hourly, 84d4927d-8e1a-46a2-b73e-1b12d4ba13c6, AnyNumber,413.29,413.2875,413.285,413.2825,413.28,413.2775,413.275,413.2725,413.27,413.2675,413.265,413.2625,413.26,413.2575,413.255,413.2525,413.25,413.2475,413.245,413.2425,413.24,413.2375,413.235,413.2325;

Schedule:Day:Hourly, 15c1caaa-ee8f-475e-b32c-638ef55bd68a, AnyNumber,413.23,413.22708,413.22417,413.22125,413.21833,413.21542,413.2125,413.20958,413.20667,413.20375,413.20083,413.19792,413.195,413.19208,413.18917,413.18625,413.18333,413.18042,413.1775,413.17458,413.17167,413.16875,413.16583,413.16292;

Schedule:Day:Hourly, a86e30b0-43f8-40d6-80dc-19c3d091303b, AnyNumber,413.16,413.15708,413.15417,413.15125,413.14833,413.14542,413.1425,413.13958,413.13667,413.13375,413.13083,413.12792,413.125,413.12208,413.11917,413.11625,413.11333,413.11042,413.1075,413.10458,413.10167,413.09875,413.09583,413.09292;

Schedule:Day:Hourly, 4020f1a1-bbf7-40db-ae45-7d03e9a11cf6, AnyNumber,413.09,413.08708,413.08417,413.08125,413.07833,413.07542,413.0725,413.06958,413.06667,413.06375,413.06083,413.05792,413.055,413.05208,413.04917,413.04625,413.04333,413.04042,413.0375,413.03458,413.03167,413.02875,413.02583,413.02292;

Schedule:Day:Hourly, 58d92343-3ea0-4c68-97d3-39bb749d2d03, AnyNumber,413.02,413.01708,413.01417,413.01125,413.00833,413.00542,413.0025,412.99958,412.99667,412.99375,412.99083,412.98792,412.985,412.98208,412.97917,412.97625,412.97333,412.97042,412.9675,412.96458,412.96167,412.95875,412.95583,412.95292;

Schedule:Day:Hourly, 43e1d47a-b66b-4466-8395-7b1e848a22c3, AnyNumber,412.95,412.94708,412.94417,412.94125,412.93833,412.93542,412.9325,412.92958,412.92667,412.92375,412.92083,412.91792,412.915,412.91208,412.90917,412.90625,412.90333,412.90042,412.8975,412.89458,412.89167,412.88875,412.88583,412.88292;

Schedule:Day:Hourly, 4804c8d6-4e17-45f1-9e22-039e2aa12615, AnyNumber,412.88,412.87667,412.87333,412.87,412.86667,412.86333,412.86,412.85667,412.85333,412.85,412.84667,412.84333,412.84,412.83667,412.83333,412.83,412.82667,412.82333,412.82,412.81667,412.81333,412.81,412.80667,412.80333;

Schedule:Day:Hourly, 18c68fb5-f79f-4ebf-a4c1-9e240905da67, AnyNumber,412.8,412.79667,412.79333,412.79,412.78667,412.78333,412.78,412.77667,412.77333,412.77,412.76667,412.76333,412.76,412.75667,412.75333,412.75,412.74667,412.74333,412.74,412.73667,412.73333,412.73,412.72667,412.72333;

Schedule:Day:Hourly, cde88e7a-5e66-432e-8b20-e4a756addad2, AnyNumber,412.72,412.71708,412.71417,412.71125,412.70833,412.70542,412.7025,412.69958,412.69667,412.69375,412.69083,412.68792,412.685,412.68208,412.67917,412.67625,412.67333,412.67042,412.6675,412.66458,412.66167,412.65875,412.65583,412.65292;

Schedule:Day:Hourly, d4af0813-cdde-494c-80ba-f33bb11f00b7, AnyNumber,412.65,412.64667,412.64333,412.64,412.63667,412.63333,412.63,412.62667,412.62333,412.62,412.61667,412.61333,412.61,412.60667,412.60333,412.6,412.59667,412.59333,412.59,412.58667,412.58333,412.58,412.57667,412.57333;

Schedule:Day:Hourly, 6209eb25-eee4-4067-b80e-97a9b143a938, AnyNumber,412.57,412.56667,412.56333,412.56,412.55667,412.55333,412.55,412.54667,412.54333,412.54,412.53667,412.53333,412.53,412.52667,412.52333,412.52,412.51667,412.51333,412.51,412.50667,412.50333,412.5,412.49667,412.49333;

Schedule:Day:Hourly, 0909c5a0-5575-40ce-8c8d-e8b68116984b, AnyNumber,412.49,412.48667,412.48333,412.48,412.47667,412.47333,412.47,412.46667,412.46333,412.46,412.45667,412.45333,412.45,412.44667,412.44333,412.44,412.43667,412.43333,412.43,412.42667,412.42333,412.42,412.41667,412.41333;

Schedule:Day:Hourly, b31a4c84-f758-4789-a66b-220f46f3f71a, AnyNumber,412.41,412.40625,412.4025,412.39875,412.395,412.39125,412.3875,412.38375,412.38,412.37625,412.3725,412.36875,412.365,412.36125,412.3575,412.35375,412.35,412.34625,412.3425,412.33875,412.335,412.33125,412.3275,412.32375;

Schedule:Day:Hourly, ec3c5200-a64c-4976-ab5a-36195255cad1, AnyNumber,412.32,412.31667,412.31333,412.31,412.30667,412.30333,412.3,412.29667,412.29333,412.29,412.28667,412.28333,412.28,412.27667,412.27333,412.27,412.26667,412.26333,412.26,412.25667,412.25333,412.25,412.24667,412.24333;

Schedule:Day:Hourly, a20a34a1-a18f-4ae4-88f9-133e01925955, AnyNumber,412.24,412.23625,412.2325,412.22875,412.225,412.22125,412.2175,412.21375,412.21,412.20625,412.2025,412.19875,412.195,412.19125,412.1875,412.18375,412.18,412.17625,412.1725,412.16875,412.165,412.16125,412.1575,412.15375;

Schedule:Day:Hourly, f0a41ace-3366-402b-9cf5-22800678b154, AnyNumber,412.15,412.14667,412.14333,412.14,412.13667,412.13333,412.13,412.12667,412.12333,412.12,412.11667,412.11333,412.11,412.10667,412.10333,412.1,412.09667,412.09333,412.09,412.08667,412.08333,412.08,412.07667,412.07333;

Schedule:Day:Hourly, bc155388-965d-43e6-a47f-bbfc32a948e7, AnyNumber,412.07,412.06625,412.0625,412.05875,412.055,412.05125,412.0475,412.04375,412.04,412.03625,412.0325,412.02875,412.025,412.02125,412.0175,412.01375,412.01,412.00625,412.0025,411.99875,411.995,411.99125,411.9875,411.98375;

Schedule:Day:Hourly, c06ef4f3-7be0-46f0-ba0b-b25159ff3570, AnyNumber,411.98,411.97667,411.97333,411.97,411.96667,411.96333,411.96,411.95667,411.95333,411.95,411.94667,411.94333,411.94,411.93667,411.93333,411.93,411.92667,411.92333,411.92,411.91667,411.91333,411.91,411.90667,411.90333;

Schedule:Day:Hourly, 488df030-f919-4ed8-aa1d-a82516e4e17a, AnyNumber,411.9,411.89625,411.8925,411.88875,411.885,411.88125,411.8775,411.87375,411.87,411.86625,411.8625,411.85875,411.855,411.85125,411.8475,411.84375,411.84,411.83625,411.8325,411.82875,411.825,411.82125,411.8175,411.81375;

Schedule:Day:Hourly, 34cd54fa-a0ef-4052-8cc3-6b054b69c143, AnyNumber,411.81,411.80625,411.8025,411.79875,411.795,411.79125,411.7875,411.78375,411.78,411.77625,411.7725,411.76875,411.765,411.76125,411.7575,411.75375,411.75,411.74625,411.7425,411.73875,411.735,411.73125,411.7275,411.72375;

Schedule:Day:Hourly, 150e8699-f78c-4117-a9e5-32e7fb4718dc, AnyNumber,411.72,411.71625,411.7125,411.70875,411.705,411.70125,411.6975,411.69375,411.69,411.68625,411.6825,411.67875,411.675,411.67125,411.6675,411.66375,411.66,411.65625,411.6525,411.64875,411.645,411.64125,411.6375,411.63375;

Schedule:Day:Hourly, 847310d8-3732-4d66-9a17-25dce7cebbeb, AnyNumber,411.63,411.62667,411.62333,411.62,411.61667,411.61333,411.61,411.60667,411.60333,411.6,411.59667,411.59333,411.59,411.58667,411.58333,411.58,411.57667,411.57333,411.57,411.56667,411.56333,411.56,411.55667,411.55333;

Schedule:Day:Hourly, 29662d7b-9f9d-4312-8cff-71d8f73488e8, AnyNumber,411.55,411.54625,411.5425,411.53875,411.535,411.53125,411.5275,411.52375,411.52,411.51625,411.5125,411.50875,411.505,411.50125,411.4975,411.49375,411.49,411.48625,411.4825,411.47875,411.475,411.47125,411.4675,411.46375;

Schedule:Day:Hourly, 66e76b90-d0fa-4aae-9f0c-96866b6c44a2, AnyNumber,411.46,411.45625,411.4525,411.44875,411.445,411.44125,411.4375,411.43375,411.43,411.42625,411.4225,411.41875,411.415,411.41125,411.4075,411.40375,411.4,411.39625,411.3925,411.38875,411.385,411.38125,411.3775,411.37375;

Schedule:Day:Hourly, 4293de69-0cd1-4bbf-8f37-8795994d9558, AnyNumber,411.37,411.36625,411.3625,411.35875,411.355,411.35125,411.3475,411.34375,411.34,411.33625,411.3325,411.32875,411.325,411.32125,411.3175,411.31375,411.31,411.30625,411.3025,411.29875,411.295,411.29125,411.2875,411.28375;

Schedule:Day:Hourly, b06812de-2e9a-4d0b-84ae-2fcd6a9e2d17, AnyNumber,411.28,411.27625,411.2725,411.26875,411.265,411.26125,411.2575,411.25375,411.25,411.24625,411.2425,411.23875,411.235,411.23125,411.2275,411.22375,411.22,411.21625,411.2125,411.20875,411.205,411.20125,411.1975,411.19375;

Schedule:Day:Hourly, b58dec87-a39a-4617-8581-0b6932c878ec, AnyNumber,411.19,411.18667,411.18333,411.18,411.17667,411.17333,411.17,411.16667,411.16333,411.16,411.15667,411.15333,411.15,411.14667,411.14333,411.14,411.13667,411.13333,411.13,411.12667,411.12333,411.12,411.11667,411.11333;

Schedule:Day:Hourly, b33ade9a-993a-4ea7-8bd5-3c90f8842aac, AnyNumber,411.11,411.10625,411.1025,411.09875,411.095,411.09125,411.0875,411.08375,411.08,411.07625,411.0725,411.06875,411.065,411.06125,411.0575,411.05375,411.05,411.04625,411.0425,411.03875,411.035,411.03125,411.0275,411.02375;

Schedule:Day:Hourly, 132ebef0-7fd0-490b-9f0f-ff07a2514f91, AnyNumber,411.02,411.01625,411.0125,411.00875,411.005,411.00125,410.9975,410.99375,410.99,410.98625,410.9825,410.97875,410.975,410.97125,410.9675,410.96375,410.96,410.95625,410.9525,410.94875,410.945,410.94125,410.9375,410.93375;

Schedule:Day:Hourly, 71fab4a3-c71f-4411-bb5d-096997180b74, AnyNumber,410.93,410.92667,410.92333,410.92,410.91667,410.91333,410.91,410.90667,410.90333,410.9,410.89667,410.89333,410.89,410.88667,410.88333,410.88,410.87667,410.87333,410.87,410.86667,410.86333,410.86,410.85667,410.85333;

Schedule:Day:Hourly, 548a769c-cebd-4a49-a8ca-af60be407f58, AnyNumber,410.85,410.84625,410.8425,410.83875,410.835,410.83125,410.8275,410.82375,410.82,410.81625,410.8125,410.80875,410.805,410.80125,410.7975,410.79375,410.79,410.78625,410.7825,410.77875,410.775,410.77125,410.7675,410.76375;

Schedule:Day:Hourly, cdc66afd-937f-4622-ba71-bf9bb31323f0, AnyNumber,410.76,410.75667,410.75333,410.75,410.74667,410.74333,410.74,410.73667,410.73333,410.73,410.72667,410.72333,410.72,410.71667,410.71333,410.71,410.70667,410.70333,410.7,410.69667,410.69333,410.69,410.68667,410.68333;

Schedule:Day:Hourly, 96f7ec73-e0c5-4f8e-a335-d944732b2c41, AnyNumber,410.68,410.67667,410.67333,410.67,410.66667,410.66333,410.66,410.65667,410.65333,410.65,410.64667,410.64333,410.64,410.63667,410.63333,410.63,410.62667,410.62333,410.62,410.61667,410.61333,410.61,410.60667,410.60333;

Schedule:Day:Hourly, 6373cc7a-ff81-4c6d-9c9d-10ffe1e55367, AnyNumber,410.6,410.59625,410.5925,410.58875,410.585,410.58125,410.5775,410.57375,410.57,410.56625,410.5625,410.55875,410.555,410.55125,410.5475,410.54375,410.54,410.53625,410.5325,410.52875,410.525,410.52125,410.5175,410.51375;

Schedule:Day:Hourly, 84fc9451-e8a1-4cd7-92eb-0bef7a9990a4, AnyNumber,410.51,410.50667,410.50333,410.5,410.49667,410.49333,410.49,410.48667,410.48333,410.48,410.47667,410.47333,410.47,410.46667,410.46333,410.46,410.45667,410.45333,410.45,410.44667,410.44333,410.44,410.43667,410.43333;

Schedule:Day:Hourly, c0ce5ed0-6789-408a-97f1-d81856765170, AnyNumber,410.43,410.42667,410.42333,410.42,410.41667,410.41333,410.41,410.40667,410.40333,410.4,410.39667,410.39333,410.39,410.38667,410.38333,410.38,410.37667,410.37333,410.37,410.36667,410.36333,410.36,410.35667,410.35333;

Schedule:Day:Hourly, f5b5c45e-28f0-4c72-ad63-b60dbd93e54c, AnyNumber,410.35,410.34708,410.34417,410.34125,410.33833,410.33542,410.3325,410.32958,410.32667,410.32375,410.32083,410.31792,410.315,410.31208,410.30917,410.30625,410.30333,410.30042,410.2975,410.29458,410.29167,410.28875,410.28583,410.28292;

Schedule:Day:Hourly, 661f2f61-36f1-4d2c-be3a-a0af740f86bb, AnyNumber,410.28,410.27667,410.27333,410.27,410.26667,410.26333,410.26,410.25667,410.25333,410.25,410.24667,410.24333,410.24,410.23667,410.23333,410.23,410.22667,410.22333,410.22,410.21667,410.21333,410.21,410.20667,410.20333;

Schedule:Day:Hourly, fae298be-f8eb-49b2-b512-269380ecb625, AnyNumber,410.2,410.19708,410.19417,410.19125,410.18833,410.18542,410.1825,410.17958,410.17667,410.17375,410.17083,410.16792,410.165,410.16208,410.15917,410.15625,410.15333,410.15042,410.1475,410.14458,410.14167,410.13875,410.13583,410.13292;

Schedule:Day:Hourly, 38b3ca64-65f7-4749-a647-6e5bb599f6af, AnyNumber,410.13,410.12708,410.12417,410.12125,410.11833,410.11542,410.1125,410.10958,410.10667,410.10375,410.10083,410.09792,410.095,410.09208,410.08917,410.08625,410.08333,410.08042,410.0775,410.07458,410.07167,410.06875,410.06583,410.06292;

Schedule:Day:Hourly, de56428a-fc5b-4e5a-a784-5ffaf9de98e9, AnyNumber,410.06,410.05667,410.05333,410.05,410.04667,410.04333,410.04,410.03667,410.03333,410.03,410.02667,410.02333,410.02,410.01667,410.01333,410.01,410.00667,410.00333,410,409.99667,409.99333,409.99,409.98667,409.98333;

Schedule:Day:Hourly, 6f1a52bd-52bb-4894-a83f-6211b5b60048, AnyNumber,409.98,409.9775,409.975,409.9725,409.97,409.9675,409.965,409.9625,409.96,409.9575,409.955,409.9525,409.95,409.9475,409.945,409.9425,409.94,409.9375,409.935,409.9325,409.93,409.9275,409.925,409.9225;

Schedule:Day:Hourly, f24cfab5-132c-4a0e-9a2f-8496bdc1685e, AnyNumber,409.92,409.91708,409.91417,409.91125,409.90833,409.90542,409.9025,409.89958,409.89667,409.89375,409.89083,409.88792,409.885,409.88208,409.87917,409.87625,409.87333,409.87042,409.8675,409.86458,409.86167,409.85875,409.85583,409.85292;

Schedule:Day:Hourly, 6591fd28-f0b4-4604-86e2-4250cb9a0c01, AnyNumber,409.85,409.8475,409.845,409.8425,409.84,409.8375,409.835,409.8325,409.83,409.8275,409.825,409.8225,409.82,409.8175,409.815,409.8125,409.81,409.8075,409.805,409.8025,409.8,409.7975,409.795,409.7925;

Schedule:Day:Hourly, d7992eba-cdd5-41dd-857d-6672be6cf15d, AnyNumber,409.79,409.7875,409.785,409.7825,409.78,409.7775,409.775,409.7725,409.77,409.7675,409.765,409.7625,409.76,409.7575,409.755,409.7525,409.75,409.7475,409.745,409.7425,409.74,409.7375,409.735,409.7325;

Schedule:Day:Hourly, 7a9109ee-3282-4991-926a-4b4421e40d2a, AnyNumber,409.73,409.7275,409.725,409.7225,409.72,409.7175,409.715,409.7125,409.71,409.7075,409.705,409.7025,409.7,409.6975,409.695,409.6925,409.69,409.6875,409.685,409.6825,409.68,409.6775,409.675,409.6725;

Schedule:Day:Hourly, 6d514d0c-706d-4b5c-aef9-19ac04c1d36c, AnyNumber,409.67,409.6675,409.665,409.6625,409.66,409.6575,409.655,409.6525,409.65,409.6475,409.645,409.6425,409.64,409.6375,409.635,409.6325,409.63,409.6275,409.625,409.6225,409.62,409.6175,409.615,409.6125;

Schedule:Day:Hourly, b914231b-b850-4981-8e42-a43bf8ffe3e3, AnyNumber,409.61,409.60792,409.60583,409.60375,409.60167,409.59958,409.5975,409.59542,409.59333,409.59125,409.58917,409.58708,409.585,409.58292,409.58083,409.57875,409.57667,409.57458,409.5725,409.57042,409.56833,409.56625,409.56417,409.56208;

Schedule:Day:Hourly, bea2ddcd-08c9-4797-8a59-6d00079968ec, AnyNumber,409.56,409.5575,409.555,409.5525,409.55,409.5475,409.545,409.5425,409.54,409.5375,409.535,409.5325,409.53,409.5275,409.525,409.5225,409.52,409.5175,409.515,409.5125,409.51,409.5075,409.505,409.5025;

Schedule:Day:Hourly, 57fc6a4a-d98f-4ed5-bb5c-0d4b526a3f46, AnyNumber,409.5,409.49833,409.49667,409.495,409.49333,409.49167,409.49,409.48833,409.48667,409.485,409.48333,409.48167,409.48,409.47833,409.47667,409.475,409.47333,409.47167,409.47,409.46833,409.46667,409.465,409.46333,409.46167;

Schedule:Day:Hourly, ef653af1-c13b-4f25-8b5d-6685e44aa173, AnyNumber,409.46,409.45792,409.45583,409.45375,409.45167,409.44958,409.4475,409.44542,409.44333,409.44125,409.43917,409.43708,409.435,409.43292,409.43083,409.42875,409.42667,409.42458,409.4225,409.42042,409.41833,409.41625,409.41417,409.41208;

Schedule:Day:Hourly, 281817ab-cc67-4619-8077-a34c5fb75b5a, AnyNumber,409.41,409.40833,409.40667,409.405,409.40333,409.40167,409.4,409.39833,409.39667,409.395,409.39333,409.39167,409.39,409.38833,409.38667,409.385,409.38333,409.38167,409.38,409.37833,409.37667,409.375,409.37333,409.37167;

Schedule:Day:Hourly, f0289c75-9fdf-41ce-9507-f2fc03e100f2, AnyNumber,409.37,409.36833,409.36667,409.365,409.36333,409.36167,409.36,409.35833,409.35667,409.355,409.35333,409.35167,409.35,409.34833,409.34667,409.345,409.34333,409.34167,409.34,409.33833,409.33667,409.335,409.33333,409.33167;

Schedule:Day:Hourly, ef10c2ca-c492-4931-a4d7-1da6c03ada94, AnyNumber,409.33,409.32833,409.32667,409.325,409.32333,409.32167,409.32,409.31833,409.31667,409.315,409.31333,409.31167,409.31,409.30833,409.30667,409.305,409.30333,409.30167,409.3,409.29833,409.29667,409.295,409.29333,409.29167;

Schedule:Day:Hourly, 510cc484-24ad-4ed7-aefc-2167e0151d32, AnyNumber,409.29,409.28833,409.28667,409.285,409.28333,409.28167,409.28,409.27833,409.27667,409.275,409.27333,409.27167,409.27,409.26833,409.26667,409.265,409.26333,409.26167,409.26,409.25833,409.25667,409.255,409.25333,409.25167;

Schedule:Day:Hourly, 917c3d10-276f-45d4-8ac5-970d8c7cc16f, AnyNumber,409.25,409.24875,409.2475,409.24625,409.245,409.24375,409.2425,409.24125,409.24,409.23875,409.2375,409.23625,409.235,409.23375,409.2325,409.23125,409.23,409.22875,409.2275,409.22625,409.225,409.22375,409.2225,409.22125;

Schedule:Day:Hourly, df0441e7-5324-473c-9b92-d2caf1cec4bc, AnyNumber,409.22,409.21917,409.21833,409.2175,409.21667,409.21583,409.215,409.21417,409.21333,409.2125,409.21167,409.21083,409.21,409.20917,409.20833,409.2075,409.20667,409.20583,409.205,409.20417,409.20333,409.2025,409.20167,409.20083;

Schedule:Day:Hourly, 68092fcf-9f96-4035-9106-6e93bac79d25, AnyNumber,409.2,409.19875,409.1975,409.19625,409.195,409.19375,409.1925,409.19125,409.19,409.18875,409.1875,409.18625,409.185,409.18375,409.1825,409.18125,409.18,409.17875,409.1775,409.17625,409.175,409.17375,409.1725,409.17125;

Schedule:Day:Hourly, 1f7efa68-97ac-46f9-98ab-cf0983ffab30, AnyNumber,409.17,409.16917,409.16833,409.1675,409.16667,409.16583,409.165,409.16417,409.16333,409.1625,409.16167,409.16083,409.16,409.15917,409.15833,409.1575,409.15667,409.15583,409.155,409.15417,409.15333,409.1525,409.15167,409.15083;

Schedule:Day:Hourly, b323a3e2-5a15-494a-ad9e-67aff6dff608, AnyNumber,409.15,409.14917,409.14833,409.1475,409.14667,409.14583,409.145,409.14417,409.14333,409.1425,409.14167,409.14083,409.14,409.13917,409.13833,409.1375,409.13667,409.13583,409.135,409.13417,409.13333,409.1325,409.13167,409.13083;

Schedule:Day:Hourly, 8d8a98f4-22f6-4d09-85fc-fe46d97f2e59, AnyNumber,409.13,409.12917,409.12833,409.1275,409.12667,409.12583,409.125,409.12417,409.12333,409.1225,409.12167,409.12083,409.12,409.11917,409.11833,409.1175,409.11667,409.11583,409.115,409.11417,409.11333,409.1125,409.11167,409.11083;

Schedule:Day:Hourly, d5a7466e-667b-44b3-96a9-3590e6e04aaa, AnyNumber,409.11,409.10958,409.10917,409.10875,409.10833,409.10792,409.1075,409.10708,409.10667,409.10625,409.10583,409.10542,409.105,409.10458,409.10417,409.10375,409.10333,409.10292,409.1025,409.10208,409.10167,409.10125,409.10083,409.10042;

Schedule:Day:Hourly, e686d7cd-981e-4e05-a1d9-c0661d67d6b3, AnyNumber,409.1,409.09958,409.09917,409.09875,409.09833,409.09792,409.0975,409.09708,409.09667,409.09625,409.09583,409.09542,409.095,409.09458,409.09417,409.09375,409.09333,409.09292,409.0925,409.09208,409.09167,409.09125,409.09083,409.09042;

Schedule:Day:Hourly, 6dbdda34-a207-46ce-a994-c7fbba57435e, AnyNumber,409.09,409.08958,409.08917,409.08875,409.08833,409.08792,409.0875,409.08708,409.08667,409.08625,409.08583,409.08542,409.085,409.08458,409.08417,409.08375,409.08333,409.08292,409.0825,409.08208,409.08167,409.08125,409.08083,409.08042;

Schedule:Day:Hourly, 6b361b0b-7135-4a6b-bb5e-809fb926002f, AnyNumber,409.08,409.08,409.08,409.08,409.08,409.08,409.08,409.08,409.08,409.08,409.08,409.08,409.08,409.08,409.08,409.08,409.08,409.08,409.08,409.08,409.08,409.08,409.08,409.08;

Schedule:Day:Hourly, b7276b5d-90e6-4aa5-a49f-2cc7d8eaeac5, AnyNumber,409.08,409.08042,409.08083,409.08125,409.08167,409.08208,409.0825,409.08292,409.08333,409.08375,409.08417,409.08458,409.085,409.08542,409.08583,409.08625,409.08667,409.08708,409.0875,409.08792,409.08833,409.08875,409.08917,409.08958;

Schedule:Day:Hourly, 205c3e3d-5732-498f-a9ca-7e78a26f9dc0, AnyNumber,409.09,409.09042,409.09083,409.09125,409.09167,409.09208,409.0925,409.09292,409.09333,409.09375,409.09417,409.09458,409.095,409.09542,409.09583,409.09625,409.09667,409.09708,409.0975,409.09792,409.09833,409.09875,409.09917,409.09958;

Schedule:Day:Hourly, 18fc32ec-0d67-4620-8159-364dc4e0b581, AnyNumber,409.1,409.10042,409.10083,409.10125,409.10167,409.10208,409.1025,409.10292,409.10333,409.10375,409.10417,409.10458,409.105,409.10542,409.10583,409.10625,409.10667,409.10708,409.1075,409.10792,409.10833,409.10875,409.10917,409.10958;

Schedule:Day:Hourly, a3be6d8c-ab75-48f0-a13d-945bba0e8492, AnyNumber,409.11,409.11042,409.11083,409.11125,409.11167,409.11208,409.1125,409.11292,409.11333,409.11375,409.11417,409.11458,409.115,409.11542,409.11583,409.11625,409.11667,409.11708,409.1175,409.11792,409.11833,409.11875,409.11917,409.11958;

Schedule:Day:Hourly, 69f76499-0f15-4a49-95f5-346ca42cb2a9, AnyNumber,409.12,409.12083,409.12167,409.1225,409.12333,409.12417,409.125,409.12583,409.12667,409.1275,409.12833,409.12917,409.13,409.13083,409.13167,409.1325,409.13333,409.13417,409.135,409.13583,409.13667,409.1375,409.13833,409.13917;

Schedule:Day:Hourly, bc8d9958-55d3-4022-b7e8-179139bbfb40, AnyNumber,409.14,409.14083,409.14167,409.1425,409.14333,409.14417,409.145,409.14583,409.14667,409.1475,409.14833,409.14917,409.15,409.15083,409.15167,409.1525,409.15333,409.15417,409.155,409.15583,409.15667,409.1575,409.15833,409.15917;

Schedule:Day:Hourly, cbc38d1e-c11e-4388-8c3f-3fadeed47596, AnyNumber,409.16,409.16125,409.1625,409.16375,409.165,409.16625,409.1675,409.16875,409.17,409.17125,409.1725,409.17375,409.175,409.17625,409.1775,409.17875,409.18,409.18125,409.1825,409.18375,409.185,409.18625,409.1875,409.18875;

Schedule:Day:Hourly, a3ae13ed-8ded-46ad-bf90-3cae0b46562b, AnyNumber,409.19,409.19083,409.19167,409.1925,409.19333,409.19417,409.195,409.19583,409.19667,409.1975,409.19833,409.19917,409.2,409.20083,409.20167,409.2025,409.20333,409.20417,409.205,409.20583,409.20667,409.2075,409.20833,409.20917;

Schedule:Day:Hourly, eb6cf1ac-b684-4047-9ed4-8b22b802f819, AnyNumber,409.21,409.21125,409.2125,409.21375,409.215,409.21625,409.2175,409.21875,409.22,409.22125,409.2225,409.22375,409.225,409.22625,409.2275,409.22875,409.23,409.23125,409.2325,409.23375,409.235,409.23625,409.2375,409.23875;

Schedule:Day:Hourly, 9c11aefb-06e2-47f3-b877-1b88317f094e, AnyNumber,409.24,409.24125,409.2425,409.24375,409.245,409.24625,409.2475,409.24875,409.25,409.25125,409.2525,409.25375,409.255,409.25625,409.2575,409.25875,409.26,409.26125,409.2625,409.26375,409.265,409.26625,409.2675,409.26875;

Schedule:Day:Hourly, 344e3403-bd8f-4bc7-a292-e3648e441097, AnyNumber,409.27,409.27167,409.27333,409.275,409.27667,409.27833,409.28,409.28167,409.28333,409.285,409.28667,409.28833,409.29,409.29167,409.29333,409.295,409.29667,409.29833,409.3,409.30167,409.30333,409.305,409.30667,409.30833;

Schedule:Day:Hourly, a6483a3c-9cd1-44fa-ba26-697f684c1dcf, AnyNumber,409.31,409.31167,409.31333,409.315,409.31667,409.31833,409.32,409.32167,409.32333,409.325,409.32667,409.32833,409.33,409.33167,409.33333,409.335,409.33667,409.33833,409.34,409.34167,409.34333,409.345,409.34667,409.34833;

Schedule:Day:Hourly, f2f07a4c-b06e-466b-ab59-1cb2b0abda83, AnyNumber,409.35,409.35167,409.35333,409.355,409.35667,409.35833,409.36,409.36167,409.36333,409.365,409.36667,409.36833,409.37,409.37167,409.37333,409.375,409.37667,409.37833,409.38,409.38167,409.38333,409.385,409.38667,409.38833;

Schedule:Day:Hourly, 9aefa7ff-01ee-4117-81fe-f255f1b9a25b, AnyNumber,409.39,409.39167,409.39333,409.395,409.39667,409.39833,409.4,409.40167,409.40333,409.405,409.40667,409.40833,409.41,409.41167,409.41333,409.415,409.41667,409.41833,409.42,409.42167,409.42333,409.425,409.42667,409.42833;

Schedule:Day:Hourly, ca61f951-9a6b-4f4e-b6a0-c2b2a45978c7, AnyNumber,409.43,409.43167,409.43333,409.435,409.43667,409.43833,409.44,409.44167,409.44333,409.445,409.44667,409.44833,409.45,409.45167,409.45333,409.455,409.45667,409.45833,409.46,409.46167,409.46333,409.465,409.46667,409.46833;

Schedule:Day:Hourly, 36070e11-d26f-42dc-846d-e9712099c4ec, AnyNumber,409.47,409.47208,409.47417,409.47625,409.47833,409.48042,409.4825,409.48458,409.48667,409.48875,409.49083,409.49292,409.495,409.49708,409.49917,409.50125,409.50333,409.50542,409.5075,409.50958,409.51167,409.51375,409.51583,409.51792;

Schedule:Day:Hourly, 80abeac0-d735-416c-b2c3-4cc538d5e5b1, AnyNumber,409.52,409.52208,409.52417,409.52625,409.52833,409.53042,409.5325,409.53458,409.53667,409.53875,409.54083,409.54292,409.545,409.54708,409.54917,409.55125,409.55333,409.55542,409.5575,409.55958,409.56167,409.56375,409.56583,409.56792;

Schedule:Day:Hourly, f6ddb114-b025-4248-9f05-03350f965fbe, AnyNumber,409.57,409.57208,409.57417,409.57625,409.57833,409.58042,409.5825,409.58458,409.58667,409.58875,409.59083,409.59292,409.595,409.59708,409.59917,409.60125,409.60333,409.60542,409.6075,409.60958,409.61167,409.61375,409.61583,409.61792;

Schedule:Day:Hourly, 9eb310a4-e7e9-49f9-b7fe-521013d9c6df, AnyNumber,409.62,409.62208,409.62417,409.62625,409.62833,409.63042,409.6325,409.63458,409.63667,409.63875,409.64083,409.64292,409.645,409.64708,409.64917,409.65125,409.65333,409.65542,409.6575,409.65958,409.66167,409.66375,409.66583,409.66792;

Schedule:Day:Hourly, ff70bdec-b2b4-442e-91cc-572a0b45be9e, AnyNumber,409.67,409.6725,409.675,409.6775,409.68,409.6825,409.685,409.6875,409.69,409.6925,409.695,409.6975,409.7,409.7025,409.705,409.7075,409.71,409.7125,409.715,409.7175,409.72,409.7225,409.725,409.7275;

Schedule:Day:Hourly, c219b387-2a0a-49ab-8c28-82701728819c, AnyNumber,409.73,409.73208,409.73417,409.73625,409.73833,409.74042,409.7425,409.74458,409.74667,409.74875,409.75083,409.75292,409.755,409.75708,409.75917,409.76125,409.76333,409.76542,409.7675,409.76958,409.77167,409.77375,409.77583,409.77792;

Schedule:Day:Hourly, 6f6ce6ea-64e4-4314-98e8-4d023b604f89, AnyNumber,409.78,409.7825,409.785,409.7875,409.79,409.7925,409.795,409.7975,409.8,409.8025,409.805,409.8075,409.81,409.8125,409.815,409.8175,409.82,409.8225,409.825,409.8275,409.83,409.8325,409.835,409.8375;

Schedule:Day:Hourly, 739d4b80-33ef-470a-8695-a5793ba69547, AnyNumber,409.84,409.8425,409.845,409.8475,409.85,409.8525,409.855,409.8575,409.86,409.8625,409.865,409.8675,409.87,409.8725,409.875,409.8775,409.88,409.8825,409.885,409.8875,409.89,409.8925,409.895,409.8975;

Schedule:Day:Hourly, a73565f7-7d98-4064-8bed-0068c15a8def, AnyNumber,409.9,409.9025,409.905,409.9075,409.91,409.9125,409.915,409.9175,409.92,409.9225,409.925,409.9275,409.93,409.9325,409.935,409.9375,409.94,409.9425,409.945,409.9475,409.95,409.9525,409.955,409.9575;

Schedule:Day:Hourly, 08e473de-7c1d-4bc7-a734-2217fce8d034, AnyNumber,409.96,409.96292,409.96583,409.96875,409.97167,409.97458,409.9775,409.98042,409.98333,409.98625,409.98917,409.99208,409.995,409.99792,410.00083,410.00375,410.00667,410.00958,410.0125,410.01542,410.01833,410.02125,410.02417,410.02708;

Schedule:Day:Hourly, b3df6f71-4f6e-4a53-bb97-d768cafbe623, AnyNumber,410.03,410.0325,410.035,410.0375,410.04,410.0425,410.045,410.0475,410.05,410.0525,410.055,410.0575,410.06,410.0625,410.065,410.0675,410.07,410.0725,410.075,410.0775,410.08,410.0825,410.085,410.0875;

Schedule:Day:Hourly, 3642096a-f8ea-4f42-bc38-9b0bb7674890, AnyNumber,410.09,410.09292,410.09583,410.09875,410.10167,410.10458,410.1075,410.11042,410.11333,410.11625,410.11917,410.12208,410.125,410.12792,410.13083,410.13375,410.13667,410.13958,410.1425,410.14542,410.14833,410.15125,410.15417,410.15708;

Schedule:Day:Hourly, c9a3efdd-d7e8-4a6e-ad9e-d9d369564728, AnyNumber,410.16,410.16292,410.16583,410.16875,410.17167,410.17458,410.1775,410.18042,410.18333,410.18625,410.18917,410.19208,410.195,410.19792,410.20083,410.20375,410.20667,410.20958,410.2125,410.21542,410.21833,410.22125,410.22417,410.22708;

Schedule:Day:Hourly, 86166f7e-66ac-43c9-8f77-2c8c39365068, AnyNumber,410.23,410.2325,410.235,410.2375,410.24,410.2425,410.245,410.2475,410.25,410.2525,410.255,410.2575,410.26,410.2625,410.265,410.2675,410.27,410.2725,410.275,410.2775,410.28,410.2825,410.285,410.2875;

Schedule:Day:Hourly, a555ce13-d01d-490c-a84d-6e848db050f0, AnyNumber,410.29,410.29292,410.29583,410.29875,410.30167,410.30458,410.3075,410.31042,410.31333,410.31625,410.31917,410.32208,410.325,410.32792,410.33083,410.33375,410.33667,410.33958,410.3425,410.34542,410.34833,410.35125,410.35417,410.35708;

Schedule:Day:Hourly, 7e9a4694-fbac-485c-bac4-b5f20619c913, AnyNumber,410.36,410.36333,410.36667,410.37,410.37333,410.37667,410.38,410.38333,410.38667,410.39,410.39333,410.39667,410.4,410.40333,410.40667,410.41,410.41333,410.41667,410.42,410.42333,410.42667,410.43,410.43333,410.43667;

Schedule:Day:Hourly, 113594cb-2003-4f99-be13-8df8e578f825, AnyNumber,410.44,410.44292,410.44583,410.44875,410.45167,410.45458,410.4575,410.46042,410.46333,410.46625,410.46917,410.47208,410.475,410.47792,410.48083,410.48375,410.48667,410.48958,410.4925,410.49542,410.49833,410.50125,410.50417,410.50708;

Schedule:Day:Hourly, c9c3b810-f8ba-4a14-8037-b4ae0068e01e, AnyNumber,410.51,410.51292,410.51583,410.51875,410.52167,410.52458,410.5275,410.53042,410.53333,410.53625,410.53917,410.54208,410.545,410.54792,410.55083,410.55375,410.55667,410.55958,410.5625,410.56542,410.56833,410.57125,410.57417,410.57708;

Schedule:Day:Hourly, e755842e-2dfa-4a2f-9e47-7da3ff66902d, AnyNumber,410.58,410.58292,410.58583,410.58875,410.59167,410.59458,410.5975,410.60042,410.60333,410.60625,410.60917,410.61208,410.615,410.61792,410.62083,410.62375,410.62667,410.62958,410.6325,410.63542,410.63833,410.64125,410.64417,410.64708;

Schedule:Day:Hourly, ce381a08-cf62-47cf-b212-75119150004a, AnyNumber,410.65,410.65333,410.65667,410.66,410.66333,410.66667,410.67,410.67333,410.67667,410.68,410.68333,410.68667,410.69,410.69333,410.69667,410.7,410.70333,410.70667,410.71,410.71333,410.71667,410.72,410.72333,410.72667;

Schedule:Day:Hourly, 17026b74-af9a-46d5-bf41-ad5a51680b90, AnyNumber,410.73,410.73292,410.73583,410.73875,410.74167,410.74458,410.7475,410.75042,410.75333,410.75625,410.75917,410.76208,410.765,410.76792,410.77083,410.77375,410.77667,410.77958,410.7825,410.78542,410.78833,410.79125,410.79417,410.79708;

Schedule:Day:Hourly, ec9e43b5-9916-41d0-8a27-04733c822f5a, AnyNumber,410.8,410.80333,410.80667,410.81,410.81333,410.81667,410.82,410.82333,410.82667,410.83,410.83333,410.83667,410.84,410.84333,410.84667,410.85,410.85333,410.85667,410.86,410.86333,410.86667,410.87,410.87333,410.87667;

Schedule:Day:Hourly, 06741b14-d668-4e68-a15a-061a2c179954, AnyNumber,410.88,410.88292,410.88583,410.88875,410.89167,410.89458,410.8975,410.90042,410.90333,410.90625,410.90917,410.91208,410.915,410.91792,410.92083,410.92375,410.92667,410.92958,410.9325,410.93542,410.93833,410.94125,410.94417,410.94708;

Schedule:Day:Hourly, b054b00c-7ee0-48e5-9e33-6a3cd773750a, AnyNumber,410.95,410.95333,410.95667,410.96,410.96333,410.96667,410.97,410.97333,410.97667,410.98,410.98333,410.98667,410.99,410.99333,410.99667,411,411.00333,411.00667,411.01,411.01333,411.01667,411.02,411.02333,411.02667;

Schedule:Day:Hourly, 54921d2c-484e-47a9-b845-e794ffea01bf, AnyNumber,411.03,411.03292,411.03583,411.03875,411.04167,411.04458,411.0475,411.05042,411.05333,411.05625,411.05917,411.06208,411.065,411.06792,411.07083,411.07375,411.07667,411.07958,411.0825,411.08542,411.08833,411.09125,411.09417,411.09708;

Schedule:Day:Hourly, 5821d215-b020-4b58-8a0f-b5de4c036b53, AnyNumber,411.1,411.10333,411.10667,411.11,411.11333,411.11667,411.12,411.12333,411.12667,411.13,411.13333,411.13667,411.14,411.14333,411.14667,411.15,411.15333,411.15667,411.16,411.16333,411.16667,411.17,411.17333,411.17667;

Schedule:Day:Hourly, 12a28182-b4ab-4e37-9041-9b1844437a71, AnyNumber,411.18,411.18333,411.18667,411.19,411.19333,411.19667,411.2,411.20333,411.20667,411.21,411.21333,411.21667,411.22,411.22333,411.22667,411.23,411.23333,411.23667,411.24,411.24333,411.24667,411.25,411.25333,411.25667;

Schedule:Day:Hourly, b57530bc-768f-4bdc-ada6-d3733bfa51c7, AnyNumber,411.26,411.26292,411.26583,411.26875,411.27167,411.27458,411.2775,411.28042,411.28333,411.28625,411.28917,411.29208,411.295,411.29792,411.30083,411.30375,411.30667,411.30958,411.3125,411.31542,411.31833,411.32125,411.32417,411.32708;

Schedule:Day:Hourly, 2a6114a9-b5cc-42e3-8f65-f3527b89551e, AnyNumber,411.33,411.33333,411.33667,411.34,411.34333,411.34667,411.35,411.35333,411.35667,411.36,411.36333,411.36667,411.37,411.37333,411.37667,411.38,411.38333,411.38667,411.39,411.39333,411.39667,411.4,411.40333,411.40667;

Schedule:Day:Hourly, 8788ae4a-49d2-47af-880a-2207b797f27a, AnyNumber,411.41,411.41333,411.41667,411.42,411.42333,411.42667,411.43,411.43333,411.43667,411.44,411.44333,411.44667,411.45,411.45333,411.45667,411.46,411.46333,411.46667,411.47,411.47333,411.47667,411.48,411.48333,411.48667;

Schedule:Day:Hourly, 7598447e-5616-483c-8e5e-437912e74a87, AnyNumber,411.49,411.49292,411.49583,411.49875,411.50167,411.50458,411.5075,411.51042,411.51333,411.51625,411.51917,411.52208,411.525,411.52792,411.53083,411.53375,411.53667,411.53958,411.5425,411.54542,411.54833,411.55125,411.55417,411.55708;

Schedule:Day:Hourly, cadeff9f-75fb-4faa-8d5b-cb99d07e50cb, AnyNumber,411.56,411.56333,411.56667,411.57,411.57333,411.57667,411.58,411.58333,411.58667,411.59,411.59333,411.59667,411.6,411.60333,411.60667,411.61,411.61333,411.61667,411.62,411.62333,411.62667,411.63,411.63333,411.63667;

Schedule:Day:Hourly, 7477099c-8db3-48d8-bf1e-a64f971cdf2d, AnyNumber,411.64,411.64292,411.64583,411.64875,411.65167,411.65458,411.6575,411.66042,411.66333,411.66625,411.66917,411.67208,411.675,411.67792,411.68083,411.68375,411.68667,411.68958,411.6925,411.69542,411.69833,411.70125,411.70417,411.70708;

Schedule:Day:Hourly, a1505401-bf37-4752-bf0e-b2d30df46571, AnyNumber,411.71,411.71333,411.71667,411.72,411.72333,411.72667,411.73,411.73333,411.73667,411.74,411.74333,411.74667,411.75,411.75333,411.75667,411.76,411.76333,411.76667,411.77,411.77333,411.77667,411.78,411.78333,411.78667;

Schedule:Day:Hourly, e68af410-e7b9-4812-a11f-73b01d9d1355, AnyNumber,411.79,411.79292,411.79583,411.79875,411.80167,411.80458,411.8075,411.81042,411.81333,411.81625,411.81917,411.82208,411.825,411.82792,411.83083,411.83375,411.83667,411.83958,411.8425,411.84542,411.84833,411.85125,411.85417,411.85708;

Schedule:Day:Hourly, e5fb0f2f-a449-414f-89fe-df27f2a10226, AnyNumber,411.86,411.86292,411.86583,411.86875,411.87167,411.87458,411.8775,411.88042,411.88333,411.88625,411.88917,411.89208,411.895,411.89792,411.90083,411.90375,411.90667,411.90958,411.9125,411.91542,411.91833,411.92125,411.92417,411.92708;

Schedule:Day:Hourly, f244eae2-b5ba-4b35-bc59-d310bd6a708f, AnyNumber,411.93,411.93333,411.93667,411.94,411.94333,411.94667,411.95,411.95333,411.95667,411.96,411.96333,411.96667,411.97,411.97333,411.97667,411.98,411.98333,411.98667,411.99,411.99333,411.99667,412,412.00333,412.00667;

Schedule:Day:Hourly, 1a147bf4-0a91-4df8-90c8-41d3b8457705, AnyNumber,412.01,412.01292,412.01583,412.01875,412.02167,412.02458,412.0275,412.03042,412.03333,412.03625,412.03917,412.04208,412.045,412.04792,412.05083,412.05375,412.05667,412.05958,412.0625,412.06542,412.06833,412.07125,412.07417,412.07708;

Schedule:Day:Hourly, 2de5a1b0-5c1f-4186-a66a-553d8b234bf2, AnyNumber,412.08,412.08292,412.08583,412.08875,412.09167,412.09458,412.0975,412.10042,412.10333,412.10625,412.10917,412.11208,412.115,412.11792,412.12083,412.12375,412.12667,412.12958,412.1325,412.13542,412.13833,412.14125,412.14417,412.14708;

Schedule:Day:Hourly, 9693988f-e836-4929-a511-45d023412ec4, AnyNumber,412.15,412.15292,412.15583,412.15875,412.16167,412.16458,412.1675,412.17042,412.17333,412.17625,412.17917,412.18208,412.185,412.18792,412.19083,412.19375,412.19667,412.19958,412.2025,412.20542,412.20833,412.21125,412.21417,412.21708;

Schedule:Day:Hourly, 7b360a67-0db2-4ba2-afa6-43afc1a1ebac, AnyNumber,412.22,412.22292,412.22583,412.22875,412.23167,412.23458,412.2375,412.24042,412.24333,412.24625,412.24917,412.25208,412.255,412.25792,412.26083,412.26375,412.26667,412.26958,412.2725,412.27542,412.27833,412.28125,412.28417,412.28708;

Schedule:Day:Hourly, 52889985-5dce-4f18-908e-7cb101890a23, AnyNumber,412.29,412.29292,412.29583,412.29875,412.30167,412.30458,412.3075,412.31042,412.31333,412.31625,412.31917,412.32208,412.325,412.32792,412.33083,412.33375,412.33667,412.33958,412.3425,412.34542,412.34833,412.35125,412.35417,412.35708;

Schedule:Day:Hourly, fb3e941d-27df-47af-8296-8da206404a2c, AnyNumber,412.36,412.36292,412.36583,412.36875,412.37167,412.37458,412.3775,412.38042,412.38333,412.38625,412.38917,412.39208,412.395,412.39792,412.40083,412.40375,412.40667,412.40958,412.4125,412.41542,412.41833,412.42125,412.42417,412.42708;

Schedule:Day:Hourly, 87c9c03f-a844-44f1-8d30-c11eaee95e91, AnyNumber,412.43,412.43292,412.43583,412.43875,412.44167,412.44458,412.4475,412.45042,412.45333,412.45625,412.45917,412.46208,412.465,412.46792,412.47083,412.47375,412.47667,412.47958,412.4825,412.48542,412.48833,412.49125,412.49417,412.49708;

Schedule:Day:Hourly, 2d4d6497-995a-464f-809f-f142d885ad94, AnyNumber,412.5,412.5025,412.505,412.5075,412.51,412.5125,412.515,412.5175,412.52,412.5225,412.525,412.5275,412.53,412.5325,412.535,412.5375,412.54,412.5425,412.545,412.5475,412.55,412.5525,412.555,412.5575;

Schedule:Day:Hourly, bb550daa-1eac-4432-9f1a-0f86e40df237, AnyNumber,412.56,412.56292,412.56583,412.56875,412.57167,412.57458,412.5775,412.58042,412.58333,412.58625,412.58917,412.59208,412.595,412.59792,412.60083,412.60375,412.60667,412.60958,412.6125,412.61542,412.61833,412.62125,412.62417,412.62708;

Schedule:Day:Hourly, 9c9a68e1-7f29-47b7-b8f2-b0bf476738a8, AnyNumber,412.63,412.6325,412.635,412.6375,412.64,412.6425,412.645,412.6475,412.65,412.6525,412.655,412.6575,412.66,412.6625,412.665,412.6675,412.67,412.6725,412.675,412.6775,412.68,412.6825,412.685,412.6875;

Schedule:Day:Hourly, 5f5a49b4-f6b4-4740-b91e-4a54d82d0426, AnyNumber,412.69,412.69292,412.69583,412.69875,412.70167,412.70458,412.7075,412.71042,412.71333,412.71625,412.71917,412.72208,412.725,412.72792,412.73083,412.73375,412.73667,412.73958,412.7425,412.74542,412.74833,412.75125,412.75417,412.75708;

Schedule:Day:Hourly, f8e91831-4e76-4ae7-be5b-102091a31d61, AnyNumber,412.76,412.7625,412.765,412.7675,412.77,412.7725,412.775,412.7775,412.78,412.7825,412.785,412.7875,412.79,412.7925,412.795,412.7975,412.8,412.8025,412.805,412.8075,412.81,412.8125,412.815,412.8175;

Schedule:Day:Hourly, 71e5f07e-e988-408a-8da3-03d0d7ea9795, AnyNumber,412.82,412.8225,412.825,412.8275,412.83,412.8325,412.835,412.8375,412.84,412.8425,412.845,412.8475,412.85,412.8525,412.855,412.8575,412.86,412.8625,412.865,412.8675,412.87,412.8725,412.875,412.8775;

Schedule:Day:Hourly, 8fdf5457-d12f-40b9-ab5c-2f8fd83cb06e, AnyNumber,412.88,412.8825,412.885,412.8875,412.89,412.8925,412.895,412.8975,412.9,412.9025,412.905,412.9075,412.91,412.9125,412.915,412.9175,412.92,412.9225,412.925,412.9275,412.93,412.9325,412.935,412.9375;

Schedule:Day:Hourly, 9535fdd4-b99d-45aa-9f38-b5ca95735e1b, AnyNumber,412.94,412.9425,412.945,412.9475,412.95,412.9525,412.955,412.9575,412.96,412.9625,412.965,412.9675,412.97,412.9725,412.975,412.9775,412.98,412.9825,412.985,412.9875,412.99,412.9925,412.995,412.9975;

Schedule:Day:Hourly, f3bb02ab-7261-49ff-9e32-1a6e82b4f4ab, AnyNumber,413,413.00208,413.00417,413.00625,413.00833,413.01042,413.0125,413.01458,413.01667,413.01875,413.02083,413.02292,413.025,413.02708,413.02917,413.03125,413.03333,413.03542,413.0375,413.03958,413.04167,413.04375,413.04583,413.04792;

Schedule:Day:Hourly, 5da85aed-e530-4d9f-a559-7f7b2767d293, AnyNumber,413.05,413.0525,413.055,413.0575,413.06,413.0625,413.065,413.0675,413.07,413.0725,413.075,413.0775,413.08,413.0825,413.085,413.0875,413.09,413.0925,413.095,413.0975,413.1,413.1025,413.105,413.1075;

Schedule:Day:Hourly, 89c7bb4a-f263-440a-bd3b-81ca4afce2b5, AnyNumber,413.11,413.1125,413.115,413.1175,413.12,413.1225,413.125,413.1275,413.13,413.1325,413.135,413.1375,413.14,413.1425,413.145,413.1475,413.15,413.1525,413.155,413.1575,413.16,413.1625,413.165,413.1675;

Schedule:Day:Hourly, 4083c8f9-3243-43fc-ad29-fbc049fec9d8, AnyNumber,413.17,413.17208,413.17417,413.17625,413.17833,413.18042,413.1825,413.18458,413.18667,413.18875,413.19083,413.19292,413.195,413.19708,413.19917,413.20125,413.20333,413.20542,413.2075,413.20958,413.21167,413.21375,413.21583,413.21792;

Schedule:Day:Hourly, e97d34e2-fc8d-4583-a484-144202490f55, AnyNumber,413.22,413.22208,413.22417,413.22625,413.22833,413.23042,413.2325,413.23458,413.23667,413.23875,413.24083,413.24292,413.245,413.24708,413.24917,413.25125,413.25333,413.25542,413.2575,413.25958,413.26167,413.26375,413.26583,413.26792;

Schedule:Day:Hourly, e8bdb4f0-d10d-4ebc-9e0e-513b9654fdf9, AnyNumber,413.27,413.27208,413.27417,413.27625,413.27833,413.28042,413.2825,413.28458,413.28667,413.28875,413.29083,413.29292,413.295,413.29708,413.29917,413.30125,413.30333,413.30542,413.3075,413.30958,413.31167,413.31375,413.31583,413.31792;

Schedule:Day:Hourly, ad129a40-6278-489c-be49-c8b82c145064, AnyNumber,413.32,413.32208,413.32417,413.32625,413.32833,413.33042,413.3325,413.33458,413.33667,413.33875,413.34083,413.34292,413.345,413.34708,413.34917,413.35125,413.35333,413.35542,413.3575,413.35958,413.36167,413.36375,413.36583,413.36792;

Schedule:Day:Hourly, e9502646-dc84-4c86-8d20-3db7f9c57d34, AnyNumber,413.37,413.37208,413.37417,413.37625,413.37833,413.38042,413.3825,413.38458,413.38667,413.38875,413.39083,413.39292,413.395,413.39708,413.39917,413.40125,413.40333,413.40542,413.4075,413.40958,413.41167,413.41375,413.41583,413.41792;

Schedule:Day:Hourly, 44455802-18e4-41ed-95b5-79c3b7c61fc5, AnyNumber,413.42,413.42208,413.42417,413.42625,413.42833,413.43042,413.4325,413.43458,413.43667,413.43875,413.44083,413.44292,413.445,413.44708,413.44917,413.45125,413.45333,413.45542,413.4575,413.45958,413.46167,413.46375,413.46583,413.46792;

Schedule:Day:Hourly, 9e79d15a-1c18-4314-a884-c69ae23be766, AnyNumber,413.47,413.47167,413.47333,413.475,413.47667,413.47833,413.48,413.48167,413.48333,413.485,413.48667,413.48833,413.49,413.49167,413.49333,413.495,413.49667,413.49833,413.5,413.50167,413.50333,413.505,413.50667,413.50833;

Schedule:Day:Hourly, 1211471d-4559-4126-abe2-4e44b35bcf03, AnyNumber,413.51,413.51208,413.51417,413.51625,413.51833,413.52042,413.5225,413.52458,413.52667,413.52875,413.53083,413.53292,413.535,413.53708,413.53917,413.54125,413.54333,413.54542,413.5475,413.54958,413.55167,413.55375,413.55583,413.55792;

Schedule:Day:Hourly, 3931bb36-3c66-4c38-af07-ca82a2cbf62e, AnyNumber,413.56,413.56167,413.56333,413.565,413.56667,413.56833,413.57,413.57167,413.57333,413.575,413.57667,413.57833,413.58,413.58167,413.58333,413.585,413.58667,413.58833,413.59,413.59167,413.59333,413.595,413.59667,413.59833;

Schedule:Day:Hourly, 8ddcc65e-a84f-40bc-81e7-7e1e63425776, AnyNumber,413.6,413.60167,413.60333,413.605,413.60667,413.60833,413.61,413.61167,413.61333,413.615,413.61667,413.61833,413.62,413.62167,413.62333,413.625,413.62667,413.62833,413.63,413.63167,413.63333,413.635,413.63667,413.63833;

Schedule:Day:Hourly, 67e9ae66-9164-499d-8813-cafeb7480b41, AnyNumber,413.64,413.64167,413.64333,413.645,413.64667,413.64833,413.65,413.65167,413.65333,413.655,413.65667,413.65833,413.66,413.66167,413.66333,413.665,413.66667,413.66833,413.67,413.67167,413.67333,413.675,413.67667,413.67833;

Schedule:Day:Hourly, c2dc5fd5-9c19-4978-a448-23a744b2e2ae, AnyNumber,413.68,413.68167,413.68333,413.685,413.68667,413.68833,413.69,413.69167,413.69333,413.695,413.69667,413.69833,413.7,413.70167,413.70333,413.705,413.70667,413.70833,413.71,413.71167,413.71333,413.715,413.71667,413.71833;

Schedule:Day:Hourly, b9f14bdf-2224-4dca-b966-5c17516ba9af, AnyNumber,413.72,413.72167,413.72333,413.725,413.72667,413.72833,413.73,413.73167,413.73333,413.735,413.73667,413.73833,413.74,413.74167,413.74333,413.745,413.74667,413.74833,413.75,413.75167,413.75333,413.755,413.75667,413.75833;

Schedule:Day:Hourly, 7959cd14-1740-4d9e-a101-4f46a9eafd1f, AnyNumber,413.76,413.76167,413.76333,413.765,413.76667,413.76833,413.77,413.77167,413.77333,413.775,413.77667,413.77833,413.78,413.78167,413.78333,413.785,413.78667,413.78833,413.79,413.79167,413.79333,413.795,413.79667,413.79833;

Schedule:Day:Hourly, 1a71024a-20d6-4cd4-b3a6-0da434c95525, AnyNumber,413.8,413.80125,413.8025,413.80375,413.805,413.80625,413.8075,413.80875,413.81,413.81125,413.8125,413.81375,413.815,413.81625,413.8175,413.81875,413.82,413.82125,413.8225,413.82375,413.825,413.82625,413.8275,413.82875;

Schedule:Day:Hourly, 4922b9ec-5a9f-40e9-86c0-bb92f47d8945, AnyNumber,413.83,413.83167,413.83333,413.835,413.83667,413.83833,413.84,413.84167,413.84333,413.845,413.84667,413.84833,413.85,413.85167,413.85333,413.855,413.85667,413.85833,413.86,413.86167,413.86333,413.865,413.86667,413.86833;

Schedule:Day:Hourly, f9cef37a-31d2-4ac7-859a-a320e9ea14c4, AnyNumber,413.87,413.87125,413.8725,413.87375,413.875,413.87625,413.8775,413.87875,413.88,413.88125,413.8825,413.88375,413.885,413.88625,413.8875,413.88875,413.89,413.89125,413.8925,413.89375,413.895,413.89625,413.8975,413.89875;

Schedule:Day:Hourly, b87eae57-4fcf-4837-8cfe-60d5a930ea55, AnyNumber,413.9,413.90125,413.9025,413.90375,413.905,413.90625,413.9075,413.90875,413.91,413.91125,413.9125,413.91375,413.915,413.91625,413.9175,413.91875,413.92,413.92125,413.9225,413.92375,413.925,413.92625,413.9275,413.92875;

Schedule:Day:Hourly, 329a4d72-9627-42d1-8913-ba06d10d4151, AnyNumber,413.93,413.93167,413.93333,413.935,413.93667,413.93833,413.94,413.94167,413.94333,413.945,413.94667,413.94833,413.95,413.95167,413.95333,413.955,413.95667,413.95833,413.96,413.96167,413.96333,413.965,413.96667,413.96833;

Schedule:Day:Hourly, 7c5002f9-392c-43f1-85f5-d4c3adc9719d, AnyNumber,413.97,413.97125,413.9725,413.97375,413.975,413.97625,413.9775,413.97875,413.98,413.98125,413.9825,413.98375,413.985,413.98625,413.9875,413.98875,413.99,413.99125,413.9925,413.99375,413.995,413.99625,413.9975,413.99875;

Schedule:Day:Hourly, cbe31c1f-5570-479f-b038-490f4bfa0a79, AnyNumber,414,414.00083,414.00167,414.0025,414.00333,414.00417,414.005,414.00583,414.00667,414.0075,414.00833,414.00917,414.01,414.01083,414.01167,414.0125,414.01333,414.01417,414.015,414.01583,414.01667,414.0175,414.01833,414.01917;

Schedule:Day:Hourly, 937851a6-cb9e-4f6a-b1dc-481ec6acef92, AnyNumber,414.02,414.02125,414.0225,414.02375,414.025,414.02625,414.0275,414.02875,414.03,414.03125,414.0325,414.03375,414.035,414.03625,414.0375,414.03875,414.04,414.04125,414.0425,414.04375,414.045,414.04625,414.0475,414.04875;

Schedule:Day:Hourly, c4792cc4-29a9-49f0-9d8e-5646f808c782, AnyNumber,414.05,414.05125,414.0525,414.05375,414.055,414.05625,414.0575,414.05875,414.06,414.06125,414.0625,414.06375,414.065,414.06625,414.0675,414.06875,414.07,414.07125,414.0725,414.07375,414.075,414.07625,414.0775,414.07875;

Schedule:Day:Hourly, 307c7b4e-f3ed-4c6b-92bc-ace70a4925bc, AnyNumber,414.08,414.08125,414.0825,414.08375,414.085,414.08625,414.0875,414.08875,414.09,414.09125,414.0925,414.09375,414.095,414.09625,414.0975,414.09875,414.1,414.10125,414.1025,414.10375,414.105,414.10625,414.1075,414.10875;

Schedule:Day:Hourly, 8b2cf12e-aaf8-480f-8b46-3ba7db07c3f2, AnyNumber,414.13,414.13125,414.1325,414.13375,414.135,414.13625,414.1375,414.13875,414.14,414.14125,414.1425,414.14375,414.145,414.14625,414.1475,414.14875,414.15,414.15125,414.1525,414.15375,414.155,414.15625,414.1575,414.15875;

Schedule:Day:Hourly, 1f6178b0-9d3d-4088-8c9e-6f0b54ef5352, AnyNumber,414.22,414.22125,414.2225,414.22375,414.225,414.22625,414.2275,414.22875,414.23,414.23125,414.2325,414.23375,414.235,414.23625,414.2375,414.23875,414.24,414.24125,414.2425,414.24375,414.245,414.24625,414.2475,414.24875;

Schedule:Day:Hourly, 4aaa1648-26d1-4ddc-82df-fb1f3f31c181, AnyNumber,414.27,414.27083,414.27167,414.2725,414.27333,414.27417,414.275,414.27583,414.27667,414.2775,414.27833,414.27917,414.28,414.28083,414.28167,414.2825,414.28333,414.28417,414.285,414.28583,414.28667,414.2875,414.28833,414.28917;

Schedule:Day:Hourly, 97a03fdc-cb38-4286-aab8-01e96e52c1a4, AnyNumber,414.29,414.29042,414.29083,414.29125,414.29167,414.29208,414.2925,414.29292,414.29333,414.29375,414.29417,414.29458,414.295,414.29542,414.29583,414.29625,414.29667,414.29708,414.2975,414.29792,414.29833,414.29875,414.29917,414.29958;

Schedule:Day:Hourly, 9b9b918a-67b0-4972-978d-c52df8d4d631, AnyNumber,414.32,414.32083,414.32167,414.3225,414.32333,414.32417,414.325,414.32583,414.32667,414.3275,414.32833,414.32917,414.33,414.33083,414.33167,414.3325,414.33333,414.33417,414.335,414.33583,414.33667,414.3375,414.33833,414.33917;

Schedule:Day:Hourly, 4a4790e2-3c2e-4f10-a4fa-80c0e0e05156, AnyNumber,414.34,414.34083,414.34167,414.3425,414.34333,414.34417,414.345,414.34583,414.34667,414.3475,414.34833,414.34917,414.35,414.35083,414.35167,414.3525,414.35333,414.35417,414.355,414.35583,414.35667,414.3575,414.35833,414.35917;

Schedule:Day:Hourly, 93afe4ea-75a2-4414-b05d-ae47a6af6487, AnyNumber,414.39,414.39083,414.39167,414.3925,414.39333,414.39417,414.395,414.39583,414.39667,414.3975,414.39833,414.39917,414.4,414.40083,414.40167,414.4025,414.40333,414.40417,414.405,414.40583,414.40667,414.4075,414.40833,414.40917;

Schedule:Day:Hourly, 59bb9a01-3d82-4d60-b00d-227f5cd071ae, AnyNumber,414.41,414.41083,414.41167,414.4125,414.41333,414.41417,414.415,414.41583,414.41667,414.4175,414.41833,414.41917,414.42,414.42083,414.42167,414.4225,414.42333,414.42417,414.425,414.42583,414.42667,414.4275,414.42833,414.42917;

Schedule:Day:Hourly, 04e6b0bc-369c-405e-b121-d592474ece97, AnyNumber,414.44,414.44083,414.44167,414.4425,414.44333,414.44417,414.445,414.44583,414.44667,414.4475,414.44833,414.44917,414.45,414.45083,414.45167,414.4525,414.45333,414.45417,414.455,414.45583,414.45667,414.4575,414.45833,414.45917;

Schedule:Day:Hourly, fed868ca-7b3a-4263-9df0-6a163b5956c7, AnyNumber,414.47,414.47083,414.47167,414.4725,414.47333,414.47417,414.475,414.47583,414.47667,414.4775,414.47833,414.47917,414.48,414.48083,414.48167,414.4825,414.48333,414.48417,414.485,414.48583,414.48667,414.4875,414.48833,414.48917;

Schedule:Day:Hourly, 69ed0274-d41c-47e1-86e1-c953bf0cfa28, AnyNumber,414.5,414.50083,414.50167,414.5025,414.50333,414.50417,414.505,414.50583,414.50667,414.5075,414.50833,414.50917,414.51,414.51083,414.51167,414.5125,414.51333,414.51417,414.515,414.51583,414.51667,414.5175,414.51833,414.51917;

Schedule:Day:Hourly, 951623fb-cdfe-47ac-97de-aa840c704033, AnyNumber,414.53,414.53083,414.53167,414.5325,414.53333,414.53417,414.535,414.53583,414.53667,414.5375,414.53833,414.53917,414.54,414.54083,414.54167,414.5425,414.54333,414.54417,414.545,414.54583,414.54667,414.5475,414.54833,414.54917;

Schedule:Day:Hourly, a9d75232-cf56-45c0-b8ae-137835a04c28, AnyNumber,414.55,414.55042,414.55083,414.55125,414.55167,414.55208,414.5525,414.55292,414.55333,414.55375,414.55417,414.55458,414.555,414.55542,414.55583,414.55625,414.55667,414.55708,414.5575,414.55792,414.55833,414.55875,414.55917,414.55958;

Schedule:Day:Hourly, d711bad0-2e5a-456f-81f0-49d0586de370, AnyNumber,414.56,414.56083,414.56167,414.5625,414.56333,414.56417,414.565,414.56583,414.56667,414.5675,414.56833,414.56917,414.57,414.57083,414.57167,414.5725,414.57333,414.57417,414.575,414.57583,414.57667,414.5775,414.57833,414.57917;

Schedule:Day:Hourly, 385af9c0-ae42-4e3d-8f5a-bb685a97fa80, AnyNumber,414.58,414.58042,414.58083,414.58125,414.58167,414.58208,414.5825,414.58292,414.58333,414.58375,414.58417,414.58458,414.585,414.58542,414.58583,414.58625,414.58667,414.58708,414.5875,414.58792,414.58833,414.58875,414.58917,414.58958;

Schedule:Day:Hourly, 7a614bb2-12ed-47fd-a74e-eb4f52a5f9b2, AnyNumber,414.59,414.59083,414.59167,414.5925,414.59333,414.59417,414.595,414.59583,414.59667,414.5975,414.59833,414.59917,414.6,414.60083,414.60167,414.6025,414.60333,414.60417,414.605,414.60583,414.60667,414.6075,414.60833,414.60917;

Schedule:Day:Hourly, 0600ea1e-799e-4295-ac6a-9189e6832fd0, AnyNumber,414.61,414.61042,414.61083,414.61125,414.61167,414.61208,414.6125,414.61292,414.61333,414.61375,414.61417,414.61458,414.615,414.61542,414.61583,414.61625,414.61667,414.61708,414.6175,414.61792,414.61833,414.61875,414.61917,414.61958;

Schedule:Day:Hourly, 9ce56ccc-6930-4dd1-bc59-f0d1332f9abe, AnyNumber,414.62,414.62083,414.62167,414.6225,414.62333,414.62417,414.625,414.62583,414.62667,414.6275,414.62833,414.62917,414.63,414.63083,414.63167,414.6325,414.63333,414.63417,414.635,414.63583,414.63667,414.6375,414.63833,414.63917;

Schedule:Day:Hourly, e81670f0-5ecb-4e41-b1d2-c0c5180b02eb, AnyNumber,414.64,414.64083,414.64167,414.6425,414.64333,414.64417,414.645,414.64583,414.64667,414.6475,414.64833,414.64917,414.65,414.65083,414.65167,414.6525,414.65333,414.65417,414.655,414.65583,414.65667,414.6575,414.65833,414.65917;

Schedule:Day:Hourly, a571e0d0-42e5-41a9-a53a-0e89460e5a65, AnyNumber,414.66,414.66042,414.66083,414.66125,414.66167,414.66208,414.6625,414.66292,414.66333,414.66375,414.66417,414.66458,414.665,414.66542,414.66583,414.66625,414.66667,414.66708,414.6675,414.66792,414.66833,414.66875,414.66917,414.66958;

Schedule:Day:Hourly, 8595ce23-930c-4b1c-9331-84c12a663248, AnyNumber,414.67,414.67083,414.67167,414.6725,414.67333,414.67417,414.675,414.67583,414.67667,414.6775,414.67833,414.67917,414.68,414.68083,414.68167,414.6825,414.68333,414.68417,414.685,414.68583,414.68667,414.6875,414.68833,414.68917;

Schedule:Day:Hourly, 9b1fc940-cd49-438c-aec7-ad02deea2185, AnyNumber,414.69,414.69042,414.69083,414.69125,414.69167,414.69208,414.6925,414.69292,414.69333,414.69375,414.69417,414.69458,414.695,414.69542,414.69583,414.69625,414.69667,414.69708,414.6975,414.69792,414.69833,414.69875,414.69917,414.69958;

Schedule:Day:Hourly, fe21ae2a-573a-4dea-8d4e-e40d009b6d21, Fraction,1,1,1,1,1,1,1,0.85,0.39,0.25,0.25,0.25,0.25,0.25,0.25,0.25,0.3,0.52,0.87,0.87,0.87,1,1,1;

Schedule:Day:Hourly, 19f61bd9-0ec3-48e3-83f9-aeca46be8bf7, Fraction,0.011316031,0.011316031,0.011316031,0.011316031,0.033948092,0.0735542,0.079212215,0.0735542,0.033948092,0.022632061,0.022632061,0.022632061,0.022632061,0.022632061,0.022632061,0.039606108,0.079212215,0.113160307,0.152766415,0.181056492,0.181056492,0.124476338,0.067896184,0.028290077;

Schedule:Day:Hourly, a5c0b2b1-e3e4-40e0-8530-c138ddb1abe4, Fraction,0.45,0.41,0.39,0.38,0.38,0.43,0.54,0.65,0.66,0.67,0.69,0.7,0.69,0.66,0.65,0.68,0.8,1,1,0.93,0.89,0.85,0.71,0.58;

Schedule:Day:Hourly, 8618f100-70c2-48df-87e0-fab351c34c6b, Fraction,1,1,1,1,1,1,1,1,0,0,0,0,0,1,0,0,0,0,0,0,0,0,0,0;

Schedule:Day:Hourly, 5dcdb427-e9f7-4689-9180-3caf423e22ed, Fraction,1,1,1,1,1,1,1,1,0,0,0,0,0,0,0,0,0,0,0,0,0,0,0,0;

Schedule:Day:Hourly, 81afa01e-09a0-48f0-80c4-d51ce1cab127, Fraction,1,1,1,1,1,1,1,1,0,0,0,1,1,1,1,1,0,0,0,0,0,0,0,1;

Schedule:Day:Hourly, 3cd3efd9-c042-47ce-b340-cc821a576093, Fraction,1,1,1,1,1,1,1,1,0,0,0,0,0,0,0,0,0,0,0,0,0,0,0,1;

Schedule:Day:Hourly, 1f0a6719-7bb2-40ba-813e-320f98ae352d, Fraction,1,1,1,1,1,1,1,1,0,0,0,0,1,1,1,0,0,0,0,0,0,0,0,0;

Schedule:Day:Hourly, ba2ee583-8b1e-4da9-bea0-6898974df253, Fraction,1,1,1,1,1,1,1,1,0,0,0,0,0,0,0,0,0,0,0,0,0,0,1,1;

Schedule:Day:Hourly, 926130ae-f225-4a34-92c9-1cb046bf1eec, Fraction,1,1,1,1,1,1,1,0,0,0,0,0,1,1,1,1,0,0,0,0,0,0,0,1;

Schedule:Day:Hourly, 19df4775-b0ea-4311-b4c7-9b47212df40c, Fraction,1,1,1,1,1,1,1,1,0,0,0,0,1,1,1,1,1,0,0,0,0,0,0,0;

Schedule:Day:Hourly, a4de81bb-62dd-413f-b347-54048df0ec3b, Fraction,1,1,1,1,1,1,1,1,0,0,0,0,1,1,1,1,1,0,0,0,0,0,0,1;

Schedule:Day:Hourly, 14815d8d-3afd-4f05-9184-e9a77283cc26, Fraction,1,1,1,1,1,0,0,0,0,0,1,1,1,1,0,0,0,0,0,0,0,0,1,1;

Schedule:Day:Hourly, 33611082-0976-46d1-b902-5b496b6874f4, Fraction,1,1,1,1,1,0,0,0,0,0,0,0,0,0,0,1,1,1,1,1,1,1,1,1;

Schedule:Day:Hourly, 253c2796-c64f-472f-b25c-3e1240d7e6a8, Fraction,1,1,1,1,1,1,1,0,0,0,0,0,0,0,0,0,0,0,0,0,0,0,1,1;

Schedule:Day:Hourly, 8b90107e-4638-441a-9e95-5783319c763c, Fraction,1,1,1,1,1,1,1,0,0,0,0,0,0,0,0,0,0,0,0,0,0,0,0,1;

Schedule:Day:Hourly, 02756fd2-63df-4c34-a473-0fff2fd6183c, Fraction,1,1,1,1,1,1,1,1,1,1,1,0,0,0,0,0,0,0,0,0,1,1,1,1;

Schedule:Day:Hourly, 908a2c86-dd1e-4717-bf7e-8c26c4dd02b6, Fraction,1,1,1,1,1,1,0,0,0,0,0,0,0,0,0,0,0,0,0,0,0,1,1,1;

Schedule:Day:Hourly, 10cddf50-3af0-41ed-9158-3e58b74c72fd, Fraction,1,1,1,1,0,0,0,0,0,0,0,0,0,0,0,0,0,0,0,0,0,1,1,1;

Schedule:Day:Hourly, 0d1e05ee-c032-4751-bd17-35229dda24f7, Fraction,1,1,1,1,1,1,1,1,1,1,1,1,1,1,0,0,0,0,0,0,1,1,1,1;

Schedule:Day:Hourly, aa80f693-747a-49d9-91b8-8ea95c56ce05, Fraction,1,1,1,1,1,1,0,0,0,0,0,0,0,0,0,0,0,0,0,0,0,0,1,1;

Schedule:Day:Hourly, 87368852-f780-41ab-9086-c1382deee484, Fraction,0,1,1,1,1,1,1,1,0,0,0,0,0,1,0,0,0,0,1,1,1,1,1,1;

Schedule:Day:Hourly, 77587a13-7089-4d45-ab40-5d45ae6bfd6d, Fraction,1,1,1,1,1,1,0,0,0,0,0,0,1,1,0,0,1,1,1,1,1,1,1,1;

Schedule:Day:Hourly, 1d77efd4-25ae-47c1-adf6-4d311e70798c, Fraction,1,1,1,1,1,1,1,1,0,0,0,0,0,0,0,0,0,0,0,0,0,1,1,1;

Schedule:Day:Hourly, 6671bfd2-5b98-40d8-9327-8cbcd87165f1, Fraction,1,1,1,0,0,0,0,0,0,0,0,0,0,0,0,0,0,0,0,0,0,0,0,0;

Schedule:Day:Hourly, da6b72e5-e97a-4292-a2b7-513a6e8a3d11, Fraction,1,1,1,1,1,1,1,1,0,0,0,0,1,1,1,1,0,0,0,0,0,0,0,0;

Schedule:Day:Hourly, 2596d5a2-b66d-4e24-9263-ea2e18f87898, Fraction,0,0,0,0,0,0,0,0,1,1,1,1,1,1,1,1,0,0,0,0,0,0,0,0;

Schedule:Day:Hourly, f04ce753-6cfe-4115-82ff-bbb9d4f8620e, Fraction,0,0,0,1,1,1,1,1,0,0,0,0,0,0,0,0,0,0,0,0,0,0,0,0;

Schedule:Day:Hourly, cecc4cf8-ca63-4d31-9b9c-6714284e592c, Fraction,0,0,0,1,1,1,1,1,0,0,0,0,0,1,1,1,0,0,0,0,0,0,0,0;

Schedule:Day:Hourly, 3dd9e1e0-8daa-4f08-a023-9c19800cc0b2, Fraction,0,1,1,1,1,1,1,1,0,0,0,0,0,1,1,0,0,0,0,0,0,0,0,0;

Schedule:Day:Hourly, 0a42ac73-97ca-4d90-9bbe-a0f31409f58c, Fraction,0,0,0,0,1,1,1,1,0,0,0,0,0,0,0,0,0,0,0,0,0,0,0,0;

Schedule:Day:Hourly, f5b21968-f33b-499f-8c27-d37bb032ee17, Fraction,1,1,1,1,1,1,1,1,1,0,1,1,1,1,1,1,1,0,0,1,1,1,1,1;

Schedule:Day:Hourly, aac78e26-21a9-4344-93f1-82c4f8052330, Fraction,1,1,1,1,1,1,1,1,0,0,0,1,1,1,1,1,0,1,1,1,1,1,1,1;

Schedule:Day:Hourly, 7dc33dc8-4d07-41df-bb0f-79f8a1f0e58d, Fraction,0,1,1,1,1,1,1,1,0,0,0,0,1,1,1,0,0,0,0,0,0,0,0,0;

Schedule:Day:Hourly, 173a3c5b-6f92-4ca6-9f0e-244ffac931a2, Fraction,0,0,0,0,0,0,0,0,0,0,0,0,1,0,0,0,0,0,0,0,0,0,0,0;

Schedule:Day:Hourly, ffa688da-0411-44dd-9d70-72703ae6793f, Fraction,0,1,1,1,1,1,1,1,0,0,0,0,0,0,0,0,0,0,0,0,0,0,0,0;

Schedule:Day:Hourly, 4a292ec0-405d-4173-9fe5-0a00ddd43b25, Fraction,0,1,0,0,1,0,0,0,0,0,0,1,1,1,1,1,1,0,0,0,0,0,0,0;

Schedule:Day:Hourly, 4805e92b-9692-4833-b393-aed0ec1af40f, Fraction,0,0,0,0,0,0,0,0,0,0,0,0,1,0,1,0,0,0,0,0,0,0,0,0;

Schedule:Day:Hourly, e297b3e2-62d7-4102-b660-d1e9a6a9a5d5, Fraction,0,0,0,0,0,0,0,0,0,0,0,1,0,0,1,1,0,0,0,0,0,0,0,1;

Schedule:Day:Hourly, 2ec5f2f4-a667-483b-a77b-90ec7af7d53f, Fraction,0,0,0,1,1,1,1,1,0,0,0,1,1,1,1,0,0,0,0,0,0,1,1,0;

Schedule:Day:Hourly, d9318bd6-45e4-4c6e-a6b2-45c7dccfe036, Fraction,0,1,1,1,1,1,1,1,0,0,0,1,1,1,1,1,0,0,1,0,0,1,1,1;

Schedule:Day:Hourly, 3624dfa3-d9d9-498d-9e20-06e8e00cf470, Fraction,1,1,1,1,1,1,1,1,0,0,0,1,1,1,1,0,0,0,0,1,0,0,1,1;

Schedule:Day:Hourly, 67b5a175-1fd3-4d4a-983d-e3cced3edf27, Fraction,1,1,1,1,1,1,1,1,1,1,0,0,0,0,0,0,0,0,0,1,1,1,1,1;

Schedule:Day:Hourly, cdb81cbb-fde1-4456-a103-892fadcdade4, Fraction,1,1,1,1,1,1,1,1,0,0,0,1,1,1,1,1,1,0,1,1,1,1,1,1;

Schedule:Day:Hourly, 0a27d46e-0025-4ed1-a9ba-e2fb4c2d1fe4, Fraction,1,1,0,0,1,1,0,0,0,0,0,1,0,0,1,1,0,0,0,0,0,0,0,0;

Schedule:Day:Hourly, 8fdb9f43-f98f-409e-b0d1-73a9be143908, Fraction,0,1,1,0,1,1,0,0,0,0,0,1,1,1,1,1,1,0,0,0,0,0,0,0;

Schedule:Day:Hourly, b5191b74-66d0-43f3-9acf-947efe61db5a, Fraction,0,0,0,0,1,1,1,1,0,0,0,1,1,1,1,1,0,0,0,0,0,0,0,0;

Schedule:Day:Hourly, fed7032a-de7c-4f09-9247-478ff5a78e8a, Fraction,1,1,1,1,1,1,1,1,0,0,0,1,1,1,1,1,0,0,0,0,0,0,0,0;

Schedule:Day:Hourly, c8127eb5-13be-46a6-8e1c-8ab251adc347, Fraction,0,0,1,1,1,1,1,0,0,0,0,1,1,1,1,1,1,0,0,0,0,0,0,0;

Schedule:Day:Hourly, c5da146a-7fe7-4e89-8fdb-23770534d285, Fraction,0,0,0,0,0,0,0,0,0,0,0,0,0,1,0,0,0,0,0,0,0,0,0,0;

Schedule:Day:Hourly, e9ce64f4-f0d0-4e34-a757-67552803a17d, Fraction,0,0,0,0,0,0,0,0,0,0,0,1,1,1,0,0,0,0,0,0,0,0,0,0;

Schedule:Day:Hourly, 5fae9a4a-0183-4bba-bc4b-251889534ca4, Fraction,0,0,0,0,0,0,0,0,0,0,0,0,1,1,1,1,0,0,0,0,0,0,0,0;

Schedule:Day:Hourly, 2929a138-1660-4b55-90c0-9f4d0cf14264, Fraction,0,0,0,1,1,1,1,1,0,0,0,1,1,1,1,1,0,0,0,0,0,0,0,0;

Schedule:Day:Hourly, a2806f5e-cc7e-4ab3-b8b5-036361ad0be6, Fraction,1,1,1,0,1,1,1,1,0,0,0,1,1,1,1,1,1,0,0,0,0,0,0,1;

Schedule:Day:Hourly, 6d34f87d-404a-4eea-a31d-9aa5e30c93dc, Fraction,1,1,1,1,1,1,1,1,0,0,0,1,1,1,1,1,1,0,0,0,0,0,0,1;

Schedule:Day:Hourly, 8598695d-0908-4ae5-b45c-1ec5c0ce0dd9, Fraction,1,1,1,1,0,0,0,1,0,0,1,1,1,1,1,1,1,0,0,0,0,0,0,0;

Schedule:Day:Hourly, 47a935ae-f23d-42b5-b13a-a75eb6c7574c, Fraction,1,1,1,1,0,0,0,0,0,0,0,1,1,1,1,1,1,0,0,0,0,0,0,0;

Schedule:Day:Hourly, 9ea4c9e5-dcff-42fc-a5e0-ffb2a21bcde0, Fraction,0,0,0,0,0,0,0,0,0,0,0,1,1,1,1,1,0,0,0,0,0,1,1,1;

Schedule:Day:Hourly, 6aa7458e-ba47-4ebb-bbac-355ceaf917ac, Fraction,1,1,1,1,1,1,1,1,1,1,0,0,0,0,1,1,0,0,0,1,1,0,1,0;

Schedule:Day:Hourly, 13fd4666-c351-46ba-b242-2af52b7be5ee, Fraction,0,1,1,1,1,1,1,1,1,1,1,1,0,1,0,1,1,1,1,1,1,1,1,1;

Schedule:Day:Hourly, b2b72998-069d-4b87-8486-3bfb9409d13a, Fraction,1,1,1,1,1,1,1,1,0,0,0,1,0,1,1,0,0,0,0,1,0,1,1,1;

Schedule:Day:Hourly, 6bf10be0-f6d1-42b2-b7f7-fee7ecca2194, Fraction,1,1,1,1,1,1,1,1,0,0,0,1,1,1,1,1,1,1,0,0,0,0,0,0;

Schedule:Day:Hourly, 459521f2-5a61-4250-bef6-1112113012dd, Fraction,1,0,1,1,1,0,1,1,0,0,0,1,1,1,1,1,1,0,0,0,0,0,0,0;

Schedule:Day:Hourly, 2292208f-2845-429b-bb48-36c8d8b4e48c, Fraction,0,0,0,0,0,1,1,0,0,0,0,0,1,1,1,1,0,0,0,0,1,1,1,0;

Schedule:Day:Hourly, e26118ea-5186-4172-8c6b-a35f60b5b1e5, Fraction,0,1,0,1,1,1,1,1,0,0,0,1,1,1,1,1,1,0,0,0,0,0,0,0;

Schedule:Day:Hourly, eec8f66c-e121-4b67-8ecc-62cb04a25d93, Fraction,0,1,1,1,1,1,0,1,0,0,0,1,1,1,1,1,1,1,0,0,0,0,0,0;

Schedule:Day:Hourly, 36c41bda-17ce-4903-9bf4-7aae47858b31, Fraction,0,0,0,1,1,1,1,1,0,0,0,1,1,1,1,1,1,1,0,0,0,0,0,0;

Schedule:Day:Hourly, 650e5035-8585-4697-8746-d79a37c8486d, Fraction,0,0,0,0,1,1,1,1,0,0,0,1,1,1,1,1,1,1,0,0,0,0,0,0;

Schedule:Day:Hourly, 80749889-dadb-48cb-a655-ff23c6ba5b6a, Fraction,0,0,1,1,1,1,1,1,0,0,0,1,1,1,1,1,0,1,1,1,0,1,1,1;

Schedule:Day:Hourly, e0e52828-7cdb-4a90-838a-0c1c23b12183, Fraction,0,0,0,0,1,1,1,1,0,0,1,1,1,1,1,1,1,0,0,0,0,0,0,0;

Schedule:Day:Hourly, f0115db6-a71b-4640-92f0-770737d62856, Fraction,0,0,0,0,0,1,0,0,0,1,1,1,1,1,1,1,1,1,0,0,0,0,0,0;

Schedule:Day:Hourly, eb66565a-3a0c-45e3-abf2-48608562d179, Fraction,0,0,0,1,1,1,1,0,0,0,0,1,1,1,1,1,1,1,0,0,0,0,0,0;

Schedule:Day:Hourly, 9f6e1a9c-7deb-41ad-bae1-43a319a2527a, Fraction,1,1,1,0,1,0,1,1,0,0,0,0,1,1,1,1,1,0,0,0,0,0,0,0;

Schedule:Day:Hourly, 3c8e89a2-9075-471a-a763-be3aea2d72cb, Fraction,0,0,1,1,1,1,1,1,0,1,1,1,1,1,0,1,0,0,0,1,0,0,1,1;

Schedule:Day:Hourly, 76036948-5d5f-4298-ab69-2e66044eb0e4, Fraction,1,1,1,1,1,1,0,1,0,1,1,1,1,1,1,1,1,1,0,0,0,0,0,0;

Schedule:Day:Hourly, e2d8618c-8444-4b1f-931d-77fdf4492413, Fraction,0,1,1,1,1,1,0,1,0,0,0,1,1,1,0,0,0,0,0,0,0,0,0,1;

Schedule:Day:Hourly, c74881af-9865-479a-9cda-6c12b9aa4081, Fraction,1,1,1,1,1,1,1,1,0,1,1,1,1,1,1,0,1,0,0,1,1,1,1,1;

Schedule:Day:Hourly, a92554cf-7a8b-4c7e-beea-d9e539cad856, Fraction,1,1,1,1,1,1,1,0,0,0,0,0,1,1,1,1,0,0,0,0,0,0,1,0;

Schedule:Day:Hourly, 900352b6-8567-41c0-a874-a1ea5300ae36, Fraction,0,0,1,1,1,1,1,1,0,1,1,1,1,1,1,1,1,1,1,0,0,0,0,0;

Schedule:Day:Hourly, 8d65c598-f994-4d17-9f80-0806b0623890, Fraction,1,1,1,1,1,1,1,1,0,0,1,1,1,0,0,0,0,0,0,1,0,1,1,1;

Schedule:Day:Hourly, baf29dc9-2d8a-46c0-859f-f18bd0da22ab, Fraction,1,1,1,1,1,1,1,1,0,0,0,1,1,1,1,1,0,0,0,0,0,1,1,1;

Schedule:Day:Hourly, 8a6b3492-e083-40c5-aa51-ab8a93dd7cf6, Fraction,1,1,1,1,1,1,1,1,0,1,1,0,1,1,1,0,0,0,0,1,1,1,1,1;

Schedule:Day:Hourly, 9b77ef3a-6f8f-4932-9b30-c6e980fc680b, Fraction,1,1,1,1,1,1,1,1,0,0,1,1,1,1,1,1,1,1,0,0,0,0,0,0;

Schedule:Day:Hourly, 8967aa4d-88cc-4e3d-855a-5997934946f3, Fraction,0,1,1,0,1,1,1,1,0,1,1,1,1,1,1,1,0,1,1,1,1,1,1,1;

Schedule:Day:Hourly, ee39d697-00d3-4a7d-a87b-48ae385d2e26, Fraction,1,1,0,1,1,1,1,1,0,0,1,1,1,0,0,0,1,1,0,1,1,1,1,1;

Schedule:Day:Hourly, f719df47-8246-4c65-84d1-2f92cc272685, Fraction,1,1,1,1,1,1,1,1,0,0,1,1,1,1,1,0,1,1,1,1,1,1,1,1;

Schedule:Day:Hourly, 37defae6-4713-40da-ba10-cc5639f9dab6, Fraction,1,1,1,1,1,1,1,1,1,0,1,1,1,1,1,0,1,0,0,1,1,1,1,1;

Schedule:Day:Hourly, 445c2965-d68a-4649-92c7-32e51d912d9e, Fraction,1,1,1,1,1,1,1,1,1,1,1,1,1,1,0,0,0,0,0,0,0,1,1,1;

Schedule:Day:Hourly, 17f23b1e-bc73-4d8b-959e-a6c03055f6f0, Fraction,1,1,1,1,0,0,0,0,0,0,1,1,1,1,1,1,1,0,0,0,0,0,0,0;

Schedule:Day:Hourly, 5fb45ac4-0577-4554-a574-0de95ce07d0e, Fraction,0,1,1,1,1,1,1,1,0,0,0,1,1,1,1,1,1,1,0,0,0,0,0,0;

Schedule:Day:Hourly, b8f263ea-c9af-4f33-bdfd-9ce0bd98058f, Fraction,0,1,0,0,1,0,1,0,0,0,1,1,1,1,1,1,1,0,0,0,0,0,0,0;

Schedule:Day:Hourly, 24dff24f-8dbf-4efd-9212-9b774f90ba42, Fraction,0,1,1,1,1,1,1,1,0,1,1,1,1,1,1,1,1,1,0,0,0,0,0,0;

Schedule:Day:Hourly, f611fdf0-2572-43c5-b082-f1eae64a3ce6, Fraction,0,0,0,0,1,0,0,0,0,1,1,1,1,1,1,1,1,1,1,0,0,0,0,0;

Schedule:Day:Hourly, 4541d807-e474-402a-903b-ae2befa428d1, Fraction,0,0,0,0,1,1,0,1,0,0,1,1,0,1,1,1,1,1,1,1,1,1,1,1;

Schedule:Day:Hourly, cf356f11-1212-4417-97fa-0735ca71a9ab, Fraction,1,1,1,1,1,1,1,1,0,0,0,1,1,1,1,1,1,0,0,0,0,0,0,0;

Schedule:Day:Hourly, f91da99f-00f2-48c4-ae56-cf34869638f3, Fraction,0,1,1,1,1,1,1,1,0,0,1,1,1,0,0,0,0,0,0,0,0,0,0,1;

Schedule:Day:Hourly, d048da0d-5d6e-4f9a-a795-8de3ca902bdf, Fraction,1,1,1,1,1,1,1,1,0,0,1,1,1,1,1,1,1,0,1,0,0,0,0,0;

Schedule:Day:Hourly, 190d0247-2bda-4784-8e60-7c67e017307d, Fraction,0,0,0,0,1,1,0,0,0,0,1,1,0,0,0,1,1,0,0,1,1,1,1,1;

Schedule:Day:Hourly, 73c456bc-99ee-4c52-bf99-797e61b6e482, Fraction,1,1,1,1,1,1,1,1,0,0,0,1,1,1,1,0,0,1,1,1,1,1,1,1;

Schedule:Day:Hourly, de609169-ed74-4ff6-8260-191d73b4bdcc, Fraction,1,1,1,1,1,1,1,1,0,0,0,1,1,1,1,0,1,1,0,0,0,0,0,0;

Schedule:Day:Hourly, 54fb2f69-c7c4-4e69-b71f-8d5c25f28460, Fraction,0,0,0,0,1,0,0,0,0,1,0,1,1,1,0,1,1,1,1,1,1,1,1,1;

Schedule:Day:Hourly, 5a3077c5-6529-4acc-bf47-0f8893dd8d6c, Fraction,1,1,1,1,1,1,1,1,1,0,0,1,1,1,1,1,0,0,0,0,0,0,0,0;

Schedule:Day:Hourly, 005f949a-5569-4b14-b96d-eb8998b7f2c9, Fraction,1,1,1,1,1,1,1,1,0,1,1,1,1,1,1,0,0,0,0,0,0,0,0,0;

Schedule:Day:Hourly, 52e2ade8-1f00-496b-9824-a73b9e2fd094, Fraction,1,1,1,0,1,1,0,1,0,0,0,1,1,1,0,0,0,0,0,0,0,0,0,0;

Schedule:Day:Hourly, 3b21223f-68a8-4be7-974c-23edd7627b52, Fraction,0,0,0,0,0,0,0,0,1,1,1,1,1,1,1,1,1,1,1,0,0,0,0,0;

Schedule:Day:Hourly, 700a86a3-c248-472e-a724-58b2bdaea0c0, Fraction,0,0,0,0,1,0,1,1,1,1,1,1,1,1,1,1,1,1,0,0,0,0,0,0;

Schedule:Day:Hourly, 13d69347-03a3-4421-b1a3-e150d12f5152, Fraction,0,0,0,0,0,1,1,1,1,1,1,1,1,1,1,1,1,1,1,0,0,0,0,0;

Schedule:Day:Hourly, 03750ff8-abe3-47dc-8a36-8e2b9823c399, Fraction,0,0,0,0,1,0,1,0,0,1,1,1,1,1,1,1,1,1,1,0,0,0,0,0;

Schedule:Day:Hourly, 5ab05ab3-b1af-4255-b127-d34ad17933b2, Fraction,0,0,0,0,1,1,1,1,0,1,1,1,1,1,1,1,1,1,1,0,0,0,0,0;

Schedule:Day:Hourly, e4f44599-e79e-4247-8cb8-fa2dc344c39d, Fraction,0,0,0,0,0,0,0,0,1,1,1,1,1,1,0,0,0,0,0,1,0,0,0,0;

Schedule:Day:Hourly, cba2dbf9-67c6-4c93-a4db-e820dae3204b, Fraction,0,1,0,0,1,0,1,1,0,1,1,1,1,0,1,0,0,0,0,0,0,0,0,1;

Schedule:Day:Hourly, 873b6a4e-3d96-4138-a12d-423740b44d1e, Fraction,1,0,1,1,1,1,1,0,0,1,1,1,0,0,1,1,1,0,0,0,0,0,0,0;

Schedule:Day:Hourly, fcbe0f6d-2377-4457-b210-3fa5220d421b, Fraction,1,1,0,1,1,1,1,1,0,1,1,1,1,1,1,0,0,0,0,0,0,0,0,0;

Schedule:Day:Hourly, 174cbcc6-2b20-4967-a4d4-7bc75d614806, Fraction,0,1,1,1,1,1,1,1,0,1,1,1,0,1,1,1,0,1,0,1,1,0,1,0;

Schedule:Day:Hourly, bb9082ca-1504-4933-822d-fa32c990714c, Fraction,1,1,1,1,1,1,1,1,0,0,0,0,1,0,0,0,0,0,0,0,0,0,1,0;

Schedule:Day:Hourly, 1a41d748-84e7-4e9f-9eae-29ec90adbabc, Fraction,1,1,0,1,1,1,1,1,0,1,1,1,1,1,1,1,1,1,0,0,0,0,0,0;

Schedule:Day:Hourly, 6f9a280c-f113-4df8-be47-a3bfe5226045, Fraction,0,0,0,0,0,0,0,0,0,1,1,0,0,1,1,0,0,0,0,0,0,1,1,1;

Schedule:Day:Hourly, 7c84806f-9c50-4994-b1d5-6df72d261e57, Fraction,1,1,1,1,1,1,0,0,0,0,1,1,1,1,1,1,1,1,0,0,0,0,0,0;

Schedule:Day:Hourly, 8037efc8-13b6-4a93-94dd-cd9c610bbcd2, Fraction,0,0,0,0,0,0,0,0,0,0,1,1,1,1,1,1,1,1,0,0,0,0,0,0;

Schedule:Day:Hourly, c9abe060-4dd1-4f50-8d8c-ecfd4b0bc287, Fraction,0,0,0,1,1,1,0,0,0,0,0,0,1,1,0,0,1,1,0,0,0,1,1,1;

Schedule:Day:Hourly, e63e00f2-58f7-4067-a124-0d1c072ae056, Fraction,1,1,1,1,1,1,1,1,0,1,1,1,0,0,0,0,0,0,0,0,0,0,0,1;

Schedule:Day:Hourly, d5c8d91d-91c5-4d26-9efd-40254dbc03d1, Fraction,1,1,1,1,1,1,1,1,1,0,0,0,1,1,1,1,0,0,0,0,0,0,1,1;

Schedule:Day:Hourly, 56767e32-0bbe-4584-a736-3ad97285764f, Fraction,1,1,1,1,1,1,1,1,0,0,1,1,1,1,1,1,1,0,0,0,0,0,0,0;

Schedule:Day:Hourly, ee7902c7-d035-436e-a2fd-e21eac2f445f, Fraction,1,1,1,1,1,1,1,1,0,0,1,1,1,1,0,0,1,1,1,1,1,1,1,1;

Schedule:Day:Hourly, 99f79bd4-46e3-417d-93f6-9dce57a70617, Fraction,1,1,1,1,1,1,1,1,0,0,1,1,1,1,0,0,0,1,1,1,1,1,1,1;

Schedule:Day:Hourly, d3626a7e-168d-4c03-8cb7-2788b177a6a8, Fraction,0,0,0,0,1,1,1,1,0,0,0,0,0,0,0,0,0,0,0,0,0,0,1,1;

Schedule:Day:Hourly, 5b12d769-f2eb-4bce-91d2-b084a38cf1a7, Fraction,1,1,1,1,1,1,1,1,1,1,1,1,1,1,1,1,1,1,1,0,0,0,0,0;

Schedule:Day:Hourly, 6fa8b0f2-524f-4750-a1d2-6686eae5b4d9, Fraction,0,0,0,0,0,0,0,0,0,0,1,1,1,1,1,0,0,0,0,0,0,1,1,1;

Schedule:Day:Hourly, ba701114-7120-428a-ad82-ddaf91083595, Fraction,1,1,1,1,1,1,1,1,1,0,0,0,1,1,1,1,1,0,0,0,0,0,0,0;

Schedule:Day:Hourly, 5ab47c27-6665-4fb4-bcea-afccf7fff385, Fraction,0,1,0,0,0,1,1,1,0,0,1,1,1,0,0,0,0,0,0,0,0,0,0,0;

Schedule:Day:Hourly, c8653ceb-114b-470c-bd22-1020441d18ba, Fraction,1,1,1,1,1,1,1,1,1,0,0,0,0,0,0,0,1,1,0,0,0,0,0,0;

Schedule:Day:Hourly, 299e4ed5-6e00-431b-adf6-6c5f359e0624, Fraction,0,0,0,1,1,0,0,0,0,1,1,1,0,0,0,0,0,0,0,0,0,0,0,0;

Schedule:Day:Hourly, dd024e59-59e9-4ec0-b340-24a72d16a332, Fraction,0,0,0,0,0,0,0,0,0,1,1,1,0,0,0,0,0,0,0,0,1,1,1,1;

Schedule:Day:Hourly, bc5682cf-dbcc-4b62-9317-e1f1ad267d16, Fraction,1,1,1,1,1,1,1,1,0,0,1,1,1,1,1,1,1,1,1,0,0,0,0,0;

Schedule:Day:Hourly, 16bdee08-d361-4b29-a00e-2c5b6f4287bf, Fraction,0,1,1,1,1,1,0,0,0,1,1,1,1,1,1,1,1,0,0,0,0,0,0,0;

Schedule:Day:Hourly, d6000f41-bb7b-45ed-b57a-afc1b073e2b7, Fraction,0,1,1,1,1,1,1,1,1,0,0,1,1,1,1,1,0,0,0,0,0,0,0,0;

Schedule:Day:Hourly, b65bf38e-3a35-4375-9410-f2335e962c88, Fraction,0,0,0,0,0,0,0,0,0,0,0,0,1,1,1,1,0,0,0,0,0,0,0,1;

Schedule:Day:Hourly, fcd7c620-d12f-4264-99fa-12fe2d0fe360, Fraction,0,0,0,0,0,0,0,0,0,0,0,0,1,1,1,1,1,1,0,0,0,0,0,0;

Schedule:Day:Hourly, b0e7f3e7-0b0a-47e6-8ce3-1c4db2f07d11, Fraction,0,0,1,1,1,1,1,1,0,0,0,0,0,0,0,0,0,0,0,0,0,0,0,0;

Schedule:Day:Hourly, f184602a-fd31-4090-b52c-4353cb4ac094, Fraction,0,0,0,0,0,0,0,0,0,0,0,0,0,0,0,0,0,0,0,0,0,0,1,1;

Schedule:Day:Hourly, bd2ac4d5-fa12-4449-a241-cc3671ba5225, Fraction,0,0,0,1,1,1,1,1,1,0,0,0,0,0,0,0,1,0,0,0,0,0,0,0;

Schedule:Day:Hourly, 2d9e612a-7c91-4d10-a7cc-a66538fbc4e2, Fraction,0,0,0,1,1,1,1,1,0,0,1,1,1,1,1,1,1,0,0,0,0,0,0,0;

Schedule:Day:Hourly, 82b83fac-625c-4f48-ae0d-23de262ce1d7, Fraction,0,1,1,1,1,1,1,0,0,0,1,1,1,1,1,1,1,1,0,0,0,0,0,0;

Schedule:Day:Hourly, f5dedbc6-e168-4066-87d3-7737789f1eec, Fraction,0,0,0,0,0,0,0,0,0,1,1,1,1,1,1,1,0,0,0,0,0,0,0,0;

Schedule:Day:Hourly, 3908fc97-3355-42f9-a5f0-17b85040369a, Fraction,0,1,1,1,1,1,1,1,1,1,1,0,1,1,1,1,1,1,0,0,0,0,0,0;

Schedule:Day:Hourly, 441b293e-0602-4a86-ba3b-95f8a9617749, Fraction,0,1,0,1,0,0,0,1,0,0,1,1,1,1,1,1,1,1,1,0,1,1,0,0;

Schedule:Day:Hourly, 2cad1ec2-4263-4796-8c4d-cb13d4fa78d7, Fraction,0,0,0,0,0,0,0,0,0,0,1,1,1,1,1,1,1,1,1,1,0,0,0,0;

Schedule:Day:Hourly, 09dc48e1-efa4-4e49-a927-84a0933d98ab, Fraction,0,0,0,0,0,0,0,0,1,1,1,1,1,1,1,1,1,0,0,0,0,0,0,0;

Schedule:Day:Hourly, 988bcd57-c17a-4639-b57e-eb5c7ba8262e, Fraction,0,0,0,0,0,0,0,0,0,0,1,0,0,1,1,1,1,1,1,0,0,0,0,0;

Schedule:Day:Hourly, 06e69188-7907-4533-95c3-5364d0cb791f, Fraction,0,0,0,1,1,0,0,0,0,1,1,1,1,0,0,0,0,0,0,0,0,0,1,0;

Schedule:Day:Hourly, 65443338-ecc9-491c-8e3c-de1552718c27, Fraction,0,1,1,1,1,0,1,1,0,0,0,0,1,1,1,1,1,1,1,0,0,0,0,0;

Schedule:Day:Hourly, ae68125d-280e-4a5f-a8d5-b193018a8ac9, Fraction,0,1,0,0,1,0,1,0,0,1,1,1,1,1,1,1,1,1,1,1,0,0,0,0;

Schedule:Day:Hourly, 85b21898-48cb-4375-96c5-dc00d1059298, Fraction,0,0,0,0,0,0,0,0,0,1,1,1,1,1,1,1,1,1,1,1,1,0,0,0;

Schedule:Day:Hourly, d2be773e-9853-48d9-b5f6-a2d711cee537, Fraction,0,0,0,0,0,0,0,0,1,1,1,1,1,1,1,1,1,1,1,1,1,0,0,0;

Schedule:Day:Hourly, a6e490b1-8780-410f-80c0-f6a94a7a68a3, Fraction,0,0,0,0,0,0,0,1,0,1,0,0,1,1,1,0,0,1,0,0,0,0,0,0;

Schedule:Day:Hourly, 0bdf1e4c-e64a-4a98-b225-d7286654d542, Fraction,0,0,0,1,1,1,1,0,0,0,0,1,1,1,1,1,1,0,0,0,0,0,0,0;

Schedule:Day:Hourly, bcf447b6-8acd-48a3-b0fa-01d10871c608, Fraction,0,1,0,0,0,0,0,0,0,1,1,1,1,1,1,1,1,1,1,0,1,0,0,0;

Schedule:Day:Hourly, d693a4b4-7284-4f9f-951e-67121e27e855, Fraction,0,0,0,0,0,0,0,0,0,0,0,1,1,1,1,1,1,0,1,1,1,1,1,0;

Schedule:Day:Hourly, 44f43c23-ed09-4daf-a0f3-317aa98009c0, Fraction,0,1,1,0,1,0,0,1,0,0,0,1,1,1,0,0,1,0,0,1,1,1,1,0;

Schedule:Day:Hourly, b88c0806-e919-4a23-821f-b640699859c1, Fraction,1,1,1,1,1,1,1,1,0,0,0,1,1,1,1,1,1,1,0,0,0,0,1,1;

Schedule:Day:Hourly, fb5b515e-8c7a-48d7-86a2-7d42d0825d69, Fraction,0,1,0,0,1,1,1,1,0,0,1,1,1,0,0,0,0,1,0,1,1,0,1,1;

Schedule:Day:Hourly, bc494091-d086-494c-a6e8-676ddecb8490, Fraction,1,1,1,1,0,0,0,0,0,0,0,1,1,0,1,1,1,1,1,0,0,0,0,0;

Schedule:Day:Hourly, 6b5617f7-a3bd-4afd-859b-ae8e27d032a0, Fraction,0,0,0,0,1,1,1,1,1,0,1,1,1,0,1,1,1,0,0,0,0,0,0,0;

Schedule:Day:Hourly, fed21e98-cc81-4a2f-9d92-313f98c174c0, Fraction,0,1,1,1,1,1,1,1,0,0,0,1,1,1,1,1,0,0,0,0,0,0,0,0;

Schedule:Day:Hourly, bf34a027-6a11-4120-9c15-5fe23a1c0184, Fraction,0,0,0,0,0,0,0,0,0,0,0,1,1,0,1,1,1,1,0,0,0,0,0,0;

Schedule:Day:Hourly, feacbf2d-9493-4998-947d-4cc14bcbe2b5, Fraction,0,0,0,0,0,0,0,0,0,1,0,1,1,1,1,1,1,1,0,0,0,0,0,0;

Schedule:Day:Hourly, f29213d9-6cd8-4b0c-a869-7c28f96644df, Fraction,0,0,0,0,0,0,0,0,0,0,1,1,1,0,1,1,1,1,0,0,0,0,0,0;

Schedule:Day:Hourly, d5f4d274-0c7a-4976-ab4c-c97a5b730c77, Fraction,0,0,0,0,0,0,1,1,1,0,1,0,0,0,0,0,0,0,0,1,0,0,0,0;

Schedule:Day:Hourly, 2460e41d-3332-4a28-aefc-0efdb1055dc2, Fraction,1,0,0,0,1,0,0,0,0,0,1,1,0,1,1,1,1,0,0,0,0,0,0,0;

Schedule:Day:Hourly, e497de92-5bfe-4dbc-aba1-72e8d7e1619e, Fraction,0,0,0,0,0,0,0,0,0,1,1,1,0,0,1,1,1,1,0,0,0,0,0,0;

Schedule:Day:Hourly, 2b103ae3-cff9-48dc-a7cd-95ddd8d247a1, Fraction,0,0,0,0,0,0,0,0,0,1,1,1,1,1,1,1,1,1,1,0,0,0,0,0;

Schedule:Day:Hourly, c7fdae3b-665f-439c-8bf2-8c1810a98bc6, Fraction,0,0,0,0,0,0,0,0,0,1,1,1,0,0,1,1,1,0,0,0,0,0,0,0;

Schedule:Day:Hourly, d81dddf7-af21-4780-8db8-95a03fef33bd, Fraction,0,0,0,0,1,0,0,0,0,0,1,1,1,1,1,1,1,1,0,0,0,0,1,0;

Schedule:Day:Hourly, 12c814b5-42fe-494f-9831-5e8450348377, Fraction,0,1,1,1,1,1,1,0,0,0,1,1,1,0,0,0,0,0,1,1,1,1,1,1;

Schedule:Day:Hourly, c14b5db2-bb33-4589-ac6a-cde458e66fef, Fraction,1,1,1,1,1,1,0,0,0,0,1,1,1,0,1,1,1,1,0,0,0,0,0,0;

Schedule:Day:Hourly, 203f84ad-dd81-4292-9bd3-b34fef127576, Fraction,0,1,1,1,1,1,1,1,0,0,0,0,0,0,1,1,0,0,0,0,0,0,0,0;

Schedule:Day:Hourly, e5e8ad67-8b0b-4852-a071-0c1651beece7, Fraction,1,0,1,1,1,1,1,1,0,0,1,1,1,1,1,1,1,1,1,1,1,1,1,1;

Schedule:Day:Hourly, 54296a64-0089-4074-9c9e-132eec36a17d, Fraction,1,1,1,1,1,1,1,1,1,1,0,0,1,0,0,0,0,0,0,0,0,0,0,1;

Schedule:Day:Hourly, 78147d6d-f0e7-4a3c-b0cc-fa2e9ab0f3dc, Fraction,1,1,1,1,1,1,1,1,0,0,0,0,0,0,1,1,0,0,0,0,1,0,0,1;

Schedule:Day:Hourly, 54eb0daf-bc92-4d96-96a8-27b4a3b3ab42, Fraction,1,1,1,1,1,1,1,1,0,0,0,0,0,0,1,1,0,0,0,0,0,0,0,0;

Schedule:Day:Hourly, 03e1b542-975f-44a0-95b7-bf40f2fbd275, Fraction,0,1,0,1,1,1,1,1,0,0,0,1,1,1,0,0,0,0,0,0,0,0,0,0;

Schedule:Day:Hourly, ac315ea3-b06d-49ed-b1d1-5054dc91f7c0, Fraction,0,1,1,1,1,1,1,1,1,0,0,1,1,1,1,1,1,0,0,0,0,0,0,0;

Schedule:Day:Hourly, a74eb03a-a13e-4bf3-99f2-b5a56bff7dbc, Fraction,0,0,0,1,1,1,1,1,0,0,0,1,1,1,1,1,1,1,1,0,0,0,0,0;

Schedule:Day:Hourly, 92dca615-0297-4730-aefa-3b81817bd22c, Fraction,0,0,0,1,1,1,1,1,0,0,1,1,1,0,1,1,1,0,1,1,1,1,1,1;

Schedule:Day:Hourly, b8025866-3654-473c-8bc1-0ba4f2893154, Fraction,1,0,1,1,1,1,1,1,0,0,0,0,1,0,1,0,0,0,0,0,0,0,0,0;

Schedule:Day:Hourly, 433db98a-a20d-4841-8b8a-a1d7e7a3c249, Fraction,0,0,0,0,0,0,0,0,0,0,0,0,0,1,1,1,0,0,0,0,0,0,0,0;

Schedule:Day:Hourly, 3e854e13-7400-4d4c-8724-f10f6e038dc1, Fraction,0,0,0,0,1,0,0,0,0,0,0,1,1,1,1,1,1,0,0,0,0,0,0,0;

Schedule:Day:Hourly, 914fc65a-65aa-4205-aed3-26715ee28154, Fraction,0,0,0,0,1,0,0,0,0,1,1,0,0,1,1,1,1,1,1,1,1,1,1,1;

Schedule:Day:Hourly, 839fd083-3dbd-4375-9952-c691495287d2, Fraction,1,1,1,1,1,1,1,1,1,0,0,1,0,1,1,1,1,1,1,0,0,0,0,1;

Schedule:Day:Hourly, 7a9f45a6-7bd1-4934-a33a-864da3353612, Fraction,1,1,1,1,1,1,1,1,0,0,0,0,0,0,1,1,1,0,0,0,0,0,0,0;

Schedule:Day:Hourly, 86398017-033e-4fd4-99d2-5dc76c0c5157, Fraction,0,0,1,0,0,0,0,1,0,0,0,0,0,1,1,1,1,0,0,0,0,0,1,0;

Schedule:Day:Hourly, ae940f5e-48f8-4872-af59-07b72ce14b47, Fraction,0,0,1,1,1,1,1,1,0,0,0,1,1,1,1,1,1,1,0,0,0,0,0,0;

Schedule:Day:Hourly, b95c4d5e-26a9-4707-9df0-f76313d06b9b, Fraction,0,0,1,1,1,1,1,1,0,0,1,1,1,1,1,1,1,1,1,0,0,0,0,0;

Schedule:Day:Hourly, 35b02d20-7958-42f8-8221-3676ababc8f7, Fraction,0,0,1,1,1,1,1,1,0,1,1,1,1,1,1,1,1,1,0,0,0,0,0,0;

Schedule:Day:Hourly, 8e08edd5-54b0-4f9a-aa5b-5d6334086c43, Fraction,0,0,1,1,1,1,1,1,0,0,1,1,1,1,1,1,1,1,0,0,0,0,0,0;

Schedule:Day:Hourly, 67f88dbc-49c9-4911-ba1c-78ebb7d7d587, Fraction,0,0,1,1,1,1,1,1,0,1,0,1,1,1,1,1,1,1,0,0,0,0,0,0;

Schedule:Day:Hourly, c7165080-6564-4f63-8eb2-5283c76803c6, Fraction,0,0,0,0,0,0,0,0,0,0,0,1,1,1,1,1,1,1,0,0,0,0,0,0;

Schedule:Day:Hourly, 883197e9-7c75-4b18-a137-2211aa266f75, Fraction,0,0,0,0,0,0,0,0,0,1,1,1,1,1,1,1,1,0,0,0,0,0,0,0;

Schedule:Day:Hourly, 229aaf90-c371-42d9-a0d0-5becb96f7fb4, Fraction,0,1,1,1,1,1,1,1,1,1,1,1,0,0,0,1,1,0,0,0,0,0,0,0;

Schedule:Day:Hourly, 1f6c8006-6d32-4bd7-9267-d0568a08bb0b, Fraction,0,1,0,1,1,1,1,1,1,0,0,0,1,1,1,1,1,0,0,0,0,0,0,1;

Schedule:Day:Hourly, 63ac0d5d-a4de-49a6-827c-0b2b6ce9044e, Fraction,0,0,0,1,1,1,0,1,0,0,0,1,0,0,0,0,0,0,0,0,0,0,0,0;

Schedule:Day:Hourly, 55e9b221-8cd5-4b2f-b3b4-4624d3cab62b, Fraction,1,1,1,1,1,1,1,1,0,0,0,1,1,0,0,0,0,0,0,0,0,0,0,0;

Schedule:Day:Hourly, f5b311a1-8d18-420e-891f-46a6fcdf9abb, Fraction,0,0,0,0,0,0,1,1,0,0,0,0,1,1,1,0,0,0,0,0,0,0,0,0;

Schedule:Day:Hourly, 18d54636-aa9f-4fcc-b42e-b564506e06e2, Fraction,0,0,1,1,1,1,1,1,0,0,0,0,1,1,1,1,0,0,0,0,0,0,0,0;

Schedule:Day:Hourly, 5bbd3b37-34ac-4bc2-a72d-0bb5cd506a53, Fraction,0,0,0,1,1,1,0,0,0,0,0,1,1,1,1,1,1,1,0,0,0,0,0,0;

Schedule:Day:Hourly, 2ee66fcd-9fef-45a2-9cee-d5d2b2ccdd93, Fraction,0,0,0,1,1,1,0,0,0,0,1,1,1,1,1,1,1,1,1,0,0,0,0,0;

Schedule:Day:Hourly, 8a68abc0-028d-424c-906b-54e3ab565606, Fraction,0,0,0,0,0,1,1,0,0,0,0,0,0,0,0,0,0,0,0,0,0,0,0,0;

Schedule:Day:Hourly, 662e4420-3d47-4f74-96ef-4a0cf9a2761d, Fraction,0,0,0,0,0,0,0,0,0,0,0,0,1,0,1,1,1,1,0,0,0,0,0,0;

Schedule:Day:Hourly, f8a50c2a-6260-4063-bcfb-7e7a4cbff610, Fraction,0,0,0,0,0,1,1,1,0,0,0,1,1,1,1,1,0,0,0,0,0,0,0,0;

Schedule:Day:Hourly, d4fb3544-7271-445d-8c74-9fa366beefc6, Fraction,0,0,0,0,0,0,0,0,0,1,0,1,1,1,0,1,0,0,0,0,0,0,0,0;

Schedule:Day:Hourly, 54602601-31f4-4de8-bab0-49069784a2b2, Fraction,0,0,0,0,1,0,1,0,0,0,1,1,1,0,1,1,1,0,0,0,1,1,1,1;

Schedule:Day:Hourly, fb1a1a3e-c698-47bb-9f10-6429565ac78b, Fraction,1,1,0,0,1,1,1,1,0,0,0,0,0,0,0,0,0,0,0,0,0,0,0,0;

Schedule:Day:Hourly, 6361670f-08e3-4ce5-9183-c40ed6bec7d6, Fraction,0,0,0,0,0,1,0,1,0,0,0,1,1,1,1,1,0,0,0,1,1,1,1,1;

Schedule:Day:Hourly, 2d197532-ed74-48b5-a3ea-029b100b3b4c, Fraction,1,1,1,0,0,1,1,1,0,0,0,0,0,0,0,0,0,0,0,0,0,0,0,0;

Schedule:Day:Hourly, ef172fd1-1166-4244-9b81-ac9c25ee7140, Fraction,0,0,0,0,1,0,1,1,1,0,0,0,1,0,0,0,0,0,0,0,0,0,0,0;

Schedule:Day:Hourly, 068aa1ea-f92b-4c52-babd-3ba28e088db9, Fraction,0,0,0,1,0,0,0,0,0,0,0,1,1,0,1,1,0,1,0,0,0,0,0,0;

Schedule:Day:Hourly, 7be5f930-c9d1-41d1-9f73-8dc014247f47, Fraction,0,0,0,0,0,0,0,0,0,0,0,1,1,0,0,0,0,0,0,0,0,0,0,1;

Schedule:Day:Hourly, d479f743-58bb-4381-bc34-0454e4f3726c, Fraction,1,0,1,1,1,1,1,1,0,0,0,1,1,1,1,1,0,0,0,0,0,0,0,0;

Schedule:Day:Hourly, 869f6279-ab4c-45cb-a40c-31db3e045f15, Fraction,0,1,1,1,1,1,1,1,0,0,1,0,0,0,1,0,0,0,0,0,1,1,1,1;

Schedule:Day:Hourly, 67f79f5d-879f-44f8-b647-1131f74ce983, Fraction,1,1,1,0,1,0,0,0,0,0,0,0,1,1,1,1,0,1,0,0,0,0,0,0;

Schedule:Day:Hourly, 971dca29-db39-4082-851a-6dd26ee656e9, Fraction,0,0,0,0,0,0,1,1,0,0,0,1,1,0,0,0,0,0,0,0,0,0,0,0;

Schedule:Day:Hourly, 42499e71-9635-43f8-97cf-54b25431c190, Fraction,0,1,1,1,1,1,0,1,1,1,1,0,0,0,0,0,0,0,0,0,0,0,0,0;

Schedule:Day:Hourly, 64895081-95d1-4410-b027-bdd143a5df6e, Fraction,0,0,0,1,0,1,1,0,0,0,0,1,0,1,1,1,1,1,1,0,0,0,0,0;

Schedule:Day:Hourly, 3134f503-972f-4fe3-82ba-8d4e92bfc7da, Fraction,0,0,0,1,1,1,0,0,0,0,0,0,1,1,1,1,0,0,0,0,0,0,0,0;

Schedule:Day:Hourly, ed6fd3f3-43f2-4ef0-8dd7-7a0b72b31cbb, Fraction,0,1,1,1,1,0,1,1,0,0,0,1,1,1,1,1,1,1,1,0,0,0,0,0;

Schedule:Day:Hourly, 0842cef2-874f-47ca-bd6f-c995717f89f5, Fraction,0,0,0,0,0,0,0,0,0,0,1,1,1,1,1,1,1,1,1,0,0,0,0,0;

Schedule:Day:Hourly, 5261cf2e-85ba-4db6-9ce7-fee0a797b286, Fraction,0,0,1,1,1,0,0,1,0,0,1,1,1,1,1,1,1,1,1,1,0,0,0,0;

Schedule:Day:Hourly, cae36862-1c9f-4ffe-9071-76cd90ed5ab1, Fraction,0,0,0,0,0,0,0,1,0,0,1,1,1,1,1,1,0,1,1,1,1,1,0,0;

Schedule:Day:Hourly, 079eeea1-b62c-473a-85e8-522c02ef6f9d, Fraction,0,0,0,0,0,0,0,0,0,1,0,1,1,1,0,0,0,0,0,0,0,0,1,1;

Schedule:Day:Hourly, 7e625d85-241e-46f6-b824-82f7e8309bd2, Fraction,1,1,1,1,1,1,1,1,1,0,1,0,0,1,0,0,0,0,0,1,0,0,0,1;

Schedule:Day:Hourly, ea964e5a-72c8-42ab-b0bd-6840932f00e1, Fraction,1,1,1,1,1,1,1,1,0,0,0,1,1,1,0,0,1,1,0,0,0,0,0,1;

Schedule:Day:Hourly, 7ae45e4a-7fd6-41e5-8a4e-fe4adb9c3dce, Fraction,0,0,0,0,0,0,0,0,0,0,1,0,1,1,1,0,0,0,0,0,0,0,0,0;

Schedule:Day:Hourly, d1d83a89-aa02-48bd-bd42-bc8bb0993573, Fraction,0,1,1,1,1,1,1,1,1,0,1,1,1,1,1,0,0,0,0,1,0,1,1,1;

Schedule:Day:Hourly, 8e8bb3cb-8142-4bc1-9217-54d946ff4a27, Fraction,0,0,0,0,1,1,1,1,1,1,1,0,0,0,0,0,0,0,1,0,0,0,0,0;

Schedule:Day:Hourly, 7624fc2b-1449-4fb3-8063-622a8346a11d, Fraction,0,1,0,0,1,0,0,1,0,0,1,1,1,0,0,1,0,0,0,0,0,0,0,0;

Schedule:Day:Hourly, af5e5cc7-e4d6-4050-8d03-adeff9a77ade, Fraction,0,0,0,0,1,1,1,1,0,0,1,1,0,0,0,0,0,0,0,0,0,0,0,0;

Schedule:Day:Hourly, 20a2ea15-0366-4157-a8c0-57d473969917, Fraction,0,0,0,0,0,1,0,0,0,1,0,1,1,1,1,1,0,0,0,0,0,0,0,1;

Schedule:Day:Hourly, f07b88ba-faba-4079-b627-1374bd56611b, Fraction,1,1,1,1,1,1,1,1,0,1,1,1,1,1,1,1,0,0,0,0,0,0,0,0;

Schedule:Day:Hourly, b20c4fbb-534b-4f67-bcc6-599de88231cd, Fraction,0,0,0,0,0,0,0,0,0,1,1,1,1,1,1,0,0,0,0,0,0,0,0,0;

Schedule:Day:Hourly, dab0f51d-b6c7-402d-9076-f670d8a8be3a, Fraction,0,1,0,0,1,1,1,1,0,1,1,1,1,1,1,1,1,1,0,0,0,0,0,0;

Schedule:Day:Hourly, a3895398-1c9f-41ad-a557-52d5878792ae, Fraction,0,0,1,1,1,1,1,1,0,0,0,0,0,1,0,1,1,0,0,0,0,0,0,0;

Schedule:Day:Hourly, c23acc3e-60bf-4750-8b05-9199dcac2b66, Fraction,0,0,1,1,1,1,1,1,1,1,0,0,0,0,0,0,0,0,0,0,1,0,0,0;

Schedule:Day:Hourly, 836068ed-9d2b-442f-ad17-65d6e156eb7f, Fraction,1,1,1,1,1,0,0,0,0,0,0,1,1,1,1,1,1,0,0,0,0,0,0,0;

Schedule:Day:Hourly, 1baf96c9-a5a4-4043-be5b-f3283d23d3d7, Fraction,0,1,1,1,1,1,1,0,0,0,0,0,0,0,0,0,1,1,1,1,1,1,1,1;

Schedule:Day:Hourly, 7a23f633-3cc0-42d7-81b6-4b350cb7b05f, Fraction,0,1,0,0,1,0,0,0,0,0,0,0,1,0,0,0,0,0,0,0,0,0,0,0;

Schedule:Day:Hourly, 93237feb-5df3-46aa-8b07-617937b658ed, Fraction,0,1,1,1,1,1,1,1,1,1,0,0,0,0,0,1,1,0,0,0,0,0,0,0;

Schedule:Day:Hourly, 2111913f-7513-48a7-b5ce-ad86985c307c, Fraction,1,1,1,0,1,1,1,1,0,0,1,1,1,1,1,1,1,1,0,0,0,0,0,0;

Schedule:Day:Hourly, 62396e1b-6101-4778-9a89-c3df6b012de8, Fraction,0,1,0,0,0,0,0,0,0,0,1,0,0,0,1,1,1,1,1,0,0,0,0,1;

Schedule:Day:Hourly, c88f0633-769b-4102-ae75-12d9dbdc8829, Fraction,1,1,1,1,1,0,1,1,1,0,0,0,0,1,1,0,0,0,0,0,0,0,0,1;

Schedule:Day:Hourly, 001a5d9e-2975-4612-a3d7-69e5931aa604, Fraction,1,1,1,1,1,1,0,0,0,0,0,1,1,1,1,1,1,0,0,0,0,0,0,0;

Schedule:Day:Hourly, 3fc9ed15-e43c-4b4e-ac0d-8b756d89cf34, Fraction,0,1,1,1,1,1,1,0,0,0,0,1,1,1,1,0,0,0,0,0,0,0,0,0;

Schedule:Day:Hourly, d748a229-17c4-4497-a2ae-3035c432b4ba, Fraction,0,0,0,0,0,0,0,0,0,1,1,1,1,1,1,1,1,1,0,0,0,0,0,0;

Schedule:Day:Hourly, 7048c016-b3cc-4d30-b7a2-e82832680144, Fraction,0,0,1,1,1,1,1,0,0,0,1,1,1,1,0,0,0,0,0,0,0,0,0,0;

Schedule:Day:Hourly, 45178cf4-77f9-40aa-a0a4-11b28ac7ef65, Fraction,1,1,1,1,1,1,1,1,1,0,0,0,0,0,0,0,0,0,1,1,1,1,1,1;

Schedule:Day:Hourly, af41c58c-a08e-4e43-bc5d-241de93dec8d, Fraction,1,1,1,1,1,1,1,0,0,1,1,1,0,0,0,0,0,0,0,0,0,0,0,0;

Schedule:Day:Hourly, 9f03cfd3-7633-41ee-8cfd-2eb55b373d64, Fraction,1,1,1,1,1,1,1,1,0,1,1,0,0,0,1,1,0,0,0,0,0,0,0,0;

Schedule:Day:Hourly, 50c105d0-a097-4d9e-b7de-f51dfab3287e, Fraction,0,0,0,1,1,1,0,0,0,1,1,1,1,1,1,1,1,1,0,0,0,0,0,0;

Schedule:Day:Hourly, a7bd0efe-3aa0-41ad-a862-0c0766c6b48d, Fraction,0,0,0,0,0,0,0,1,1,1,1,0,0,0,0,0,0,0,0,0,0,0,0,1;

Schedule:Day:Hourly, c2976b59-a9d1-4ec2-afd8-5a25a852f813, Fraction,1,1,1,1,1,1,1,1,0,0,0,1,1,1,1,0,0,0,1,1,1,1,1,1;

Schedule:Day:Hourly, 0892341c-ce22-48bf-b2d7-a6b54bea3fca, Fraction,1,1,1,1,1,1,1,1,1,1,1,1,1,1,1,0,0,0,0,1,1,1,0,1;

Schedule:Day:Hourly, 0810e71b-70c5-4420-88cf-15ec6798d871, Fraction,1,1,1,1,1,1,1,1,0,0,1,1,0,1,0,0,0,0,0,0,0,0,0,1;

Schedule:Day:Hourly, 349f065c-2187-4dc3-b9d1-56dd459cd3aa, Fraction,1,1,1,1,1,1,1,0,0,0,1,0,0,0,0,0,0,0,0,1,1,1,1,1;

Schedule:Day:Hourly, 01a71e10-1e50-47e8-9dee-a916c16c638e, Fraction,1,1,1,1,1,0,0,0,0,0,1,1,1,1,1,1,1,0,0,0,0,0,0,0;

Schedule:Day:Hourly, 00c0e0ef-4640-43c7-a598-4a9e97edaa6d, Fraction,1,1,1,1,1,1,1,1,1,1,0,0,0,0,0,0,1,0,0,0,0,0,0,0;

Schedule:Day:Hourly, 9f40d702-859b-4665-b72c-3fe96d7343c0, Fraction,1,1,1,1,1,1,1,1,1,1,1,1,0,0,0,0,0,0,0,0,0,1,1,1;

Schedule:Day:Hourly, 86c1b371-93d3-48e4-a207-f1c1352b0e07, Fraction,1,1,1,1,1,1,1,0,0,0,1,1,1,1,1,1,1,0,0,0,0,1,1,1;

Schedule:Day:Hourly, cd0a9f9b-4dd7-42b7-b076-0355e52e6f7b, Fraction,1,1,1,1,1,1,1,1,0,0,1,1,1,1,0,1,1,1,1,1,1,1,1,1;

Schedule:Day:Hourly, d67b88e1-e680-47cd-8d1c-4d1d765bc77f, Fraction,1,1,1,1,1,1,1,1,1,0,0,0,0,1,0,0,0,0,0,0,0,0,0,0;

Schedule:Day:Hourly, e2fff377-7aec-4250-9183-b298a2f973d8, Fraction,1,1,1,1,1,1,1,1,0,1,1,1,1,1,1,1,1,0,1,1,1,1,1,1;

Schedule:Day:Hourly, f14ff8f6-1366-4599-b910-1c5d2465ca29, Fraction,1,1,1,1,1,1,1,1,0,0,1,1,1,1,1,1,0,0,0,0,0,0,1,1;

Schedule:Day:Hourly, 5c89464c-5ef5-470d-8494-ad207c1193eb, Fraction,1,1,1,1,1,1,1,0,0,0,1,1,1,0,0,0,0,1,1,1,1,1,1,1;

Schedule:Day:Hourly, 70fccbbf-0968-4144-81c4-213cfebb1410, Fraction,1,1,1,1,1,1,1,1,0,0,1,1,1,1,1,1,1,0,0,0,0,0,0,1;

Schedule:Day:Hourly, 6a72401a-39b8-4c8e-8b0f-e18fc8ead1de, Fraction,1,1,1,1,0,1,1,0,0,0,0,1,1,1,1,1,0,0,0,0,0,0,0,0;

Schedule:Day:Hourly, 08ea07bc-ec12-43a9-b5e9-4255b164943a, Fraction,0,0,0,0,0,1,1,1,0,0,0,0,0,1,0,0,0,0,0,0,0,0,0,0;

Schedule:Day:Hourly, 10e9fb05-1858-4299-a879-61cf543e850c, Fraction,1,1,1,1,1,1,1,1,0,0,1,1,1,1,0,0,0,0,0,0,0,0,0,0;

Schedule:Day:Hourly, 482c0ff1-a1cf-4518-9a9b-c9fd94c742e4, Fraction,0,0,0,0,0,0,0,1,0,0,0,0,0,1,0,0,0,0,0,0,0,0,1,1;

Schedule:Day:Hourly, 971f1f81-7ffb-4225-a188-1d66d3d201fa, Fraction,1,1,1,1,1,1,1,1,0,0,0,1,0,0,0,0,0,0,0,0,0,1,1,1;

Schedule:Day:Hourly, 6005d886-9535-43e2-8214-16ed1c354114, Fraction,1,1,1,1,1,1,1,1,0,0,0,0,1,1,1,0,0,0,0,0,0,0,1,1;

Schedule:Day:Hourly, fb266e95-20a3-4bcf-bbe1-b2c024e0e2b5, Fraction,1,1,1,1,1,1,1,1,1,0,0,0,0,0,0,0,1,1,1,1,1,1,1,1;

Schedule:Day:Hourly, c7bf4c7d-8060-4b6f-adbe-915409cfed54, Fraction,1,1,1,1,1,1,1,1,1,0,0,0,1,1,0,0,0,0,0,1,1,1,1,1;

Schedule:Day:Hourly, 321755bc-5975-4af5-b1da-08a8e318b26e, Fraction,1,1,1,1,1,1,1,1,0,1,0,0,1,1,1,1,1,1,1,1,1,1,1,1;

Schedule:Day:Hourly, 27c04f71-bc10-47cd-96d5-273982dcbd55, Fraction,1,1,1,1,1,1,1,1,0,0,1,0,0,0,0,0,0,0,1,1,1,1,1,1;

Schedule:Day:Hourly, 4fe47908-5490-47fc-b963-a5acf1d7db7e, Fraction,1,1,1,1,1,1,1,1,1,0,0,0,0,1,0,0,0,0,1,1,1,1,1,1;

Schedule:Day:Hourly, 7509aeb8-b5e9-4c74-ac1f-85b5df4f7c3a, Fraction,1,1,1,1,1,1,1,1,1,0,0,0,1,0,0,0,0,0,0,0,0,0,0,1;

Schedule:Day:Hourly, 8524b59a-4086-4eb9-a3a3-9c11016325d2, Fraction,1,1,1,1,1,1,1,1,1,0,0,0,1,1,1,1,0,1,1,1,1,1,1,1;

Schedule:Day:Hourly, 33232023-d3bc-4167-9908-7f5fb7bc4845, Fraction,1,1,1,1,1,1,1,1,0,0,1,1,0,0,0,0,1,1,1,1,1,1,1,1;

Schedule:Day:Hourly, fc63d4ab-520f-4892-8535-8a5b19853f97, Fraction,1,1,1,1,1,1,1,1,0,0,0,0,1,1,1,1,1,1,1,1,1,1,1,1;

Schedule:Day:Hourly, 529c80a2-adcc-425c-9c7a-9e4ea92c5ad0, Fraction,1,1,1,1,1,1,1,1,0,0,0,0,0,0,0,1,1,1,1,1,1,1,1,1;

Schedule:Day:Hourly, 361a62d4-4483-44e2-8178-8ae958f5a9d6, Fraction,1,1,1,1,1,1,1,1,1,1,1,1,1,1,1,0,0,0,1,1,1,1,1,1;

Schedule:Day:Hourly, d39a0a2d-9745-449f-9744-d5c12fb151a7, Fraction,1,1,1,1,1,1,1,1,0,1,1,1,1,1,1,1,1,1,1,1,1,1,1,1;

Schedule:Day:Hourly, eba83cb3-639c-4d5a-bba0-65026861de94, Fraction,1,1,1,1,1,1,1,1,1,0,0,0,0,0,0,0,1,1,0,0,0,0,1,1;

Schedule:Day:Hourly, 529897b0-7851-4804-9490-ac1e49f6673f, Fraction,1,1,1,1,1,1,1,1,1,0,0,0,0,0,0,0,0,0,0,1,1,1,1,1;

Schedule:Day:Hourly, 8c1eacb8-60e0-437f-9c00-406e7754e0a1, Fraction,1,1,1,1,1,1,1,0,0,0,1,1,1,1,1,1,1,0,0,0,0,0,0,0;

Schedule:Day:Hourly, ce02b5cd-0b87-43e5-8d81-d91c88fad177, Fraction,0,1,1,1,1,1,1,1,0,0,1,0,1,1,1,0,0,0,0,0,0,0,0,1;

Schedule:Day:Hourly, 4a8131e1-6b61-40b7-be8c-de09692f1780, Fraction,1,1,1,1,1,1,1,1,0,0,0,1,1,1,0,0,0,1,1,1,1,1,1,1;

Schedule:Day:Hourly, a92963a4-cdb5-4605-91ce-c7ecaa5e8ee2, Fraction,1,1,1,1,1,1,1,1,1,0,0,0,0,0,0,0,0,0,0,0,0,1,1,1;

Schedule:Day:Hourly, 60a5d225-296d-4afc-ad11-c7ede8f63fac, Fraction,1,1,1,1,1,1,1,1,0,0,1,1,1,1,1,1,1,1,0,0,0,0,1,1;

Schedule:Day:Hourly, 05a610c2-0fe3-448e-b41f-ef2fc4f267a0, Fraction,1,1,1,1,1,1,1,1,0,0,1,0,0,0,1,1,1,1,1,1,1,1,1,1;

Schedule:Day:Hourly, 741097d7-baff-4054-969c-272c18da0d28, Fraction,1,1,1,1,1,1,1,1,0,0,0,0,0,0,0,0,0,1,1,1,1,1,1,1;

Schedule:Day:Hourly, 894fad8a-9db2-4cf0-9b25-e19f91a4054e, Fraction,1,1,1,1,1,1,1,1,0,0,0,1,1,0,0,0,0,0,0,0,1,1,1,1;

Schedule:Day:Hourly, 4e647661-89a2-4b39-a766-581725928f1c, Fraction,1,1,1,1,1,1,1,1,0,0,1,1,1,1,0,0,1,0,0,0,0,1,1,1;

Schedule:Day:Hourly, 4b6ed41e-87c7-4975-a053-4426fd22b8bb, Fraction,1,1,1,1,1,1,1,1,1,0,1,1,1,1,1,1,1,0,0,0,0,0,1,1;

Schedule:Day:Hourly, bd449fe4-415f-4b3c-8c99-a05e91d1a4a4, Fraction,1,1,1,1,1,1,1,1,0,0,1,1,1,0,1,1,0,0,1,1,1,1,1,1;

Schedule:Day:Hourly, 4c9fed97-f1c1-4f52-93cf-6e3ebb21d123, Fraction,1,1,1,1,1,1,1,1,1,0,0,0,0,1,0,0,0,0,0,0,0,1,1,1;

Schedule:Day:Hourly, 90e3bf91-1fac-41b0-8900-77a460dd330f, Fraction,1,1,1,1,1,1,1,1,0,0,0,1,1,1,1,0,0,0,0,0,0,0,0,0;

Schedule:Day:Hourly, 81f41662-e9ac-4eb1-b85d-5b27cc855202, Fraction,0,1,1,1,1,1,1,0,0,0,1,1,1,1,0,0,0,0,0,0,1,1,1,0;

Schedule:Day:Hourly, 72c3588e-b2e9-4518-9183-511a012e489a, Fraction,0,0,0,0,0,0,0,0,0,0,0,1,1,0,0,1,0,0,0,0,0,0,0,0;

Schedule:Day:Hourly, 058802b1-c408-489d-8eb6-82654434e169, Fraction,0,0,0,0,0,0,0,0,0,0,0,1,1,1,1,0,0,0,0,0,0,0,0,0;

Schedule:Day:Hourly, c893bc1b-9ab6-4618-9526-c9d7948028e1, Fraction,0,0,0,0,0,0,0,0,0,0,0,1,0,0,0,0,0,0,0,0,0,0,0,0;

Schedule:Day:Hourly, 2d3622f6-77fb-4f19-83ce-4f29eb6027ad, Fraction,0,0,0,0,1,0,0,0,0,0,0,1,1,1,0,0,0,0,0,0,0,0,0,0;

Schedule:Day:Hourly, 485f56f1-57ec-4dbc-a7b3-1c70517bfc66, Fraction,0,0,0,0,1,0,0,0,0,0,0,1,1,1,0,1,1,1,0,0,1,1,1,1;

Schedule:Day:Hourly, f2aed9a4-388b-497b-9736-4f8f69007e10, Fraction,1,1,1,1,1,1,1,1,1,1,1,1,1,1,1,1,1,1,1,1,1,1,1,1;

Schedule:Day:Hourly, 3aec51c0-ffc0-4bed-9820-b9f1594e9715, Fraction,1,1,1,0,1,1,1,1,0,1,1,1,1,1,1,1,1,1,1,1,1,1,1,1;

Schedule:Day:Hourly, 2b439630-06c0-43d1-b733-c1b6edee79ff, Fraction,1,1,1,1,1,1,1,1,1,0,0,0,1,1,0,0,1,1,1,1,1,1,1,1;

Schedule:Day:Hourly, 1354364f-3d47-441f-baaf-d91082a93f77, Fraction,1,1,1,1,1,1,1,1,1,0,0,1,1,0,1,0,1,1,0,1,0,0,1,0;

Schedule:Day:Hourly, 043a86aa-8b78-41f9-9b1e-acb706614a46, Fraction,0,1,1,1,1,1,1,1,1,1,1,1,1,0,0,0,0,0,0,0,1,1,1,1;

Schedule:Day:Hourly, 6a1fb187-319f-4c84-bc8c-24fb97a2dfa3, Fraction,1,1,1,1,1,1,1,1,1,1,1,1,0,0,0,0,0,0,0,1,1,1,1,1;

Schedule:Day:Hourly, a632ed9a-5de7-4d2a-9650-94074f019fd4, Fraction,1,1,1,1,1,1,1,1,1,1,1,1,1,1,0,1,1,1,0,1,1,1,1,1;

Schedule:Day:Hourly, 3b8062e7-37c0-42ef-9213-e2c9e8404624, Fraction,1,1,1,1,1,1,1,1,1,0,0,0,0,0,0,0,0,0,0,0,1,1,1,1;

Schedule:Day:Hourly, 3b07df94-8bae-425c-907d-ec27d7f912fc, Fraction,1,1,1,1,1,1,1,1,0,0,0,0,1,1,1,1,0,0,0,0,0,0,1,0;

Schedule:Day:Hourly, 7be9cbd2-a441-4429-bd23-b447bb17e9a1, Fraction,1,1,1,1,1,1,1,1,1,1,0,1,1,1,1,0,0,0,0,0,1,1,1,0;

Schedule:Day:Hourly, 7c9938da-5bc3-4155-9f17-6dbf6999afb5, Fraction,1,1,1,1,1,1,1,1,1,0,0,0,0,1,1,1,1,1,1,1,1,1,1,1;

Schedule:Day:Hourly, 149cf891-3990-4c32-920f-f7e48fb2aa7d, Fraction,1,1,1,1,1,1,1,1,1,1,0,0,0,0,0,0,0,1,0,1,1,1,1,1;

Schedule:Day:Hourly, f20793a5-f3a4-45ea-858c-464f45aebaeb, Fraction,1,1,1,1,1,1,1,1,0,0,0,0,0,0,0,0,0,0,0,1,1,1,1,1;

Schedule:Day:Hourly, 918cd881-32ed-44fa-84e1-0d95cc65e6a6, Fraction,1,1,1,1,1,1,1,1,0,0,0,0,1,0,1,0,1,1,1,1,0,1,1,1;

Schedule:Day:Hourly, a7388b1d-e5d5-446e-9b3c-e9680b62e304, Fraction,1,1,1,1,1,1,1,1,0,0,0,0,1,0,0,0,0,0,0,0,0,1,1,1;

Schedule:Day:Hourly, 48e2d8e6-c764-4309-9400-535a4b362951, Fraction,1,1,1,1,1,1,1,1,0,0,0,1,0,1,1,0,0,0,0,0,0,0,0,1;

Schedule:Day:Hourly, b8feaf6b-9232-4fb5-8901-8b4871c860c7, Fraction,1,1,0,0,1,1,0,1,0,0,0,0,1,0,0,0,0,0,0,0,0,0,0,0;

Schedule:Day:Hourly, 485ce407-0896-49d2-8bdb-d863cf701a37, Fraction,0,0,1,0,0,0,1,0,0,0,0,0,0,1,1,0,0,0,0,0,0,0,0,0;

Schedule:Day:Hourly, 77e688b3-1c47-4fa8-a150-bdfd9f7a6f05, Fraction,0,0,0,0,0,0,0,0,0,0,0,1,1,1,1,1,0,0,0,0,0,0,1,0;

Schedule:Day:Hourly, ae164842-401a-4343-b31c-0fd7bb1224be, Fraction,1,1,0,0,1,0,0,1,0,0,0,1,1,1,1,0,0,0,0,0,0,0,0,0;

Schedule:Day:Hourly, aca1a674-1583-4169-b70b-1a5a21e13e0d, Fraction,0,1,0,1,1,1,1,1,0,0,0,1,1,1,1,1,0,0,0,0,0,0,0,0;

Schedule:Day:Hourly, 71cadaa5-eb0e-4c82-bfb7-05770e92396e, Fraction,0,1,1,1,1,1,1,1,0,0,0,0,1,1,1,1,0,0,0,0,0,0,0,0;

Schedule:Day:Hourly, 7fed7190-ed49-4405-b641-6bd42e090a6c, Fraction,0,0,0,1,1,0,0,1,0,0,0,1,1,1,1,1,0,0,0,0,0,0,0,0;

Schedule:Day:Hourly, cba0dbdb-88fe-4b2a-b0a5-debe7df2df22, Fraction,0,1,1,1,1,0,0,1,0,0,0,0,0,0,0,0,0,0,0,0,0,0,1,1;

Schedule:Day:Hourly, 85069bca-2b2a-471b-b3fa-43c3efb318f0, Fraction,0,0,0,0,0,0,0,0,1,1,1,1,1,0,1,1,1,1,1,1,1,1,1,1;

Schedule:Day:Hourly, 06d6f6e1-af1c-480b-b630-ce5e81cdfe58, Fraction,0,0,0,0,0,0,0,0,1,1,1,1,1,1,1,1,1,1,1,1,1,1,1,1;

Schedule:Day:Hourly, 2b032a04-6ee1-4acb-ba70-2f655d9db630, Fraction,0,0,0,0,0,0,0,0,1,1,1,0,0,0,0,0,1,1,1,1,1,1,1,0;

Schedule:Day:Hourly, ed4bfe94-cad4-40e5-a25a-afe5402feeae, Fraction,0,0,0,0,0,0,0,0,1,1,1,1,1,1,1,1,1,1,1,1,1,1,1,0;

Schedule:Day:Hourly, c5cacbf8-b7d6-47b0-a14d-5407c4417e75, Fraction,0,0,0,0,0,0,0,0,1,1,1,1,0,0,0,1,1,1,1,1,1,1,1,1;

Schedule:Day:Hourly, 615a7867-e14e-4151-aabf-fa796bd84dec, Fraction,0,0,0,0,0,0,0,0,1,1,1,1,1,1,1,1,1,1,1,1,1,1,0,0;

Schedule:Day:Hourly, 3d6da4ae-3ce6-406d-b521-e5cf70f2aa7e, Fraction,0,0,0,0,0,0,0,1,1,1,1,1,0,0,0,0,1,1,1,1,1,1,1,0;

Schedule:Day:Hourly, ac9fad2d-3e51-4f97-881e-d2450c51413b, Fraction,0,0,0,0,0,0,0,0,1,1,1,1,0,0,0,0,0,1,1,1,1,1,1,1;

Schedule:Day:Hourly, 0e42cded-2a11-4a29-a65f-22a311d3abbb, Fraction,0,0,0,0,0,0,0,0,1,1,1,1,0,0,0,0,0,1,1,1,1,1,1,0;

Schedule:Day:Hourly, f20a0d7c-3566-4be1-8587-853c079a1db2, Fraction,0,0,0,0,0,1,1,1,1,1,0,0,0,0,1,1,1,1,1,1,1,1,0,0;

Schedule:Day:Hourly, 595ff375-4059-4e85-8b06-aa3341602a60, Fraction,0,0,0,0,0,1,1,1,1,1,1,1,1,1,1,0,0,0,0,0,0,0,0,0;

Schedule:Day:Hourly, b356c6f9-b694-4ecb-8aa4-38cc8c6398e2, Fraction,0,0,0,0,0,0,0,1,1,1,1,1,1,1,1,1,1,1,1,1,1,1,0,0;

Schedule:Day:Hourly, e37bf46d-5aef-4994-a8a7-7644741c72a3, Fraction,0,0,0,0,0,0,0,1,1,1,1,1,1,1,1,1,1,1,1,1,1,1,1,0;

Schedule:Day:Hourly, 2269cefc-a935-47c3-b3e2-530841a6b154, Fraction,0,0,0,0,0,0,0,0,0,0,0,1,1,1,1,1,1,1,1,1,0,0,0,0;

Schedule:Day:Hourly, 79023da8-e6db-4f2f-8f41-2054c17e2bca, Fraction,0,0,0,0,0,0,1,1,1,1,1,1,1,1,1,1,1,1,1,1,1,0,0,0;

Schedule:Day:Hourly, 86a01146-cf8e-48c7-b303-e0bceb998122, Fraction,0,0,0,0,1,1,1,1,1,1,1,1,1,1,1,1,1,1,1,1,1,0,0,0;

Schedule:Day:Hourly, c9bb4b23-ce24-49e5-8961-dddd9e0eb11a, Fraction,0,0,0,0,0,0,0,0,0,0,0,0,0,0,1,1,1,1,1,1,0,0,0,0;

Schedule:Day:Hourly, 1465d87e-c0b2-4898-9858-07a856ce352f, Fraction,0,0,0,0,0,0,1,1,1,1,1,1,1,1,1,1,1,1,1,1,1,1,0,0;

Schedule:Day:Hourly, b21dc415-d331-4ffb-82a4-4013a69e96be, Fraction,1,0,0,0,0,0,0,0,1,1,1,1,1,0,1,1,1,1,0,0,0,0,0,0;

Schedule:Day:Hourly, 6e080233-e4cb-4c47-b1e8-7ec84ea5e545, Fraction,0,0,0,0,0,0,1,1,1,1,1,1,0,0,1,1,0,0,0,0,0,0,0,0;

Schedule:Day:Hourly, c3e05625-c80f-4c81-a4a9-1e7a529037f4, Fraction,0,0,0,1,1,1,1,1,1,1,1,1,1,1,1,1,1,1,1,1,1,1,1,1;

Schedule:Day:Hourly, 95084d81-6bf5-4aa3-9d4a-d76fe797a3a0, Fraction,0,0,0,0,0,0,0,0,1,1,1,1,0,0,0,0,1,1,1,1,1,1,1,1;

Schedule:Day:Hourly, cc1c95d3-11ec-4856-b087-326376f9f1df, Fraction,1,1,1,1,1,1,1,1,0,0,0,0,0,0,0,0,1,1,1,1,1,1,1,1;

Schedule:Day:Hourly, 66983e29-3603-4296-9e5f-13a50f55c452, Fraction,1,1,1,0,0,0,0,0,1,1,1,1,1,1,1,1,1,1,1,1,1,1,1,1;

Schedule:Day:Hourly, 7f8fd417-c1ec-4504-8790-f7a53b8eea8a, Fraction,1,1,1,0,0,0,0,0,1,1,1,1,1,0,0,0,1,1,1,1,1,1,1,1;

Schedule:Day:Hourly, 42a6307f-b2ff-49e0-a00d-c5f437ec8d24, Fraction,1,0,0,0,0,0,0,0,1,1,1,1,1,0,0,1,1,1,1,1,1,1,1,1;

Schedule:Day:Hourly, 9cd492d8-3f3b-46f3-8701-69e275a9b161, Fraction,1,1,1,1,0,0,0,0,1,1,1,1,1,1,1,1,1,1,1,1,1,1,1,1;

Schedule:Day:Hourly, eec8c49c-47b8-4e6c-8f13-8fbe0dfba465, Fraction,0,0,0,0,0,0,0,0,0,1,0,0,0,0,0,0,0,1,1,0,0,0,0,0;

Schedule:Day:Hourly, c95229db-74a2-4849-b964-e93d90943bb4, Fraction,0,0,0,0,0,0,0,0,1,1,1,0,0,0,0,0,1,0,0,0,0,0,0,0;

Schedule:Day:Hourly, c949a31b-6cec-4c42-8e33-a178b78093b6, Fraction,1,0,0,0,0,0,0,0,1,1,1,1,0,0,0,1,1,1,1,1,1,1,1,1;

Schedule:Day:Hourly, 3abdae18-6f5f-42a6-92ec-5e8bafdd7ec6, Fraction,1,1,1,1,1,1,1,1,1,1,1,1,0,1,1,1,1,1,1,1,1,1,1,1;

Schedule:Day:Hourly, 1392b2eb-0a18-40c2-8618-893a8af9810c, Fraction,1,0,0,0,0,0,0,0,1,1,1,1,1,1,1,1,1,1,1,1,1,1,1,1;

Schedule:Day:Hourly, 2654707f-1dea-43a9-b014-0dc0dc09ceff, Fraction,1,0,1,1,0,1,1,1,1,1,1,0,0,0,0,0,0,1,1,1,1,1,1,1;

Schedule:Day:Hourly, a28dc146-cde9-4dc3-bdc8-c9385b19801b, Fraction,1,1,1,1,1,1,1,1,1,1,1,1,0,1,0,1,1,1,1,1,1,1,1,1;

Schedule:Day:Hourly, 2f2aca47-6253-49b2-b302-f17a1cf2c10d, Fraction,1,1,1,1,1,1,1,1,1,1,1,0,1,1,0,0,1,1,1,1,1,1,1,0;

Schedule:Day:Hourly, 57228267-8ffc-4b08-800f-1df83d28b00b, Fraction,1,1,1,0,0,0,0,0,1,1,1,0,0,0,0,1,1,1,1,1,1,0,0,1;

Schedule:Day:Hourly, 0176805f-6419-410f-ba74-85dd6959e1f7, Fraction,1,0,0,0,0,0,0,0,1,1,1,0,0,0,0,0,1,1,0,1,1,0,0,0;

Schedule:Day:Hourly, 93420359-c8f8-4532-a5dc-db31faf1d0e0, Fraction,0,0,0,0,0,0,0,0,1,1,1,0,0,0,0,1,1,1,1,0,1,1,0,0;

Schedule:Day:Hourly, 527f4506-5e2d-4351-8612-1769222680b5, Fraction,0,0,0,0,0,0,0,0,1,1,1,0,0,0,0,0,0,1,0,0,0,0,0,0;

Schedule:Day:Hourly, 937d2ddf-9db7-4f99-bbca-8ced9319c7cb, Fraction,0,0,1,1,0,0,1,1,1,1,1,0,1,1,0,0,1,1,1,1,1,1,1,1;

Schedule:Day:Hourly, 3eff230f-72b4-477a-8f53-7b16b1284d89, Fraction,1,0,0,1,0,0,1,1,1,1,1,0,0,0,0,0,0,1,1,1,1,1,1,1;

Schedule:Day:Hourly, 976638ae-f183-43cc-bf01-ed478fa5cdf8, Fraction,1,1,1,1,0,0,0,0,1,1,1,0,0,0,0,0,1,1,1,1,1,1,1,1;

Schedule:Day:Hourly, 99ac96b2-0dbf-4191-92f5-f2c379e587cc, Fraction,0,0,0,0,0,0,0,0,1,1,1,0,0,0,0,0,1,1,1,1,1,1,1,1;

Schedule:Day:Hourly, 77809503-9f90-46be-adc1-3663f947b689, Fraction,1,1,0,0,0,0,0,1,1,1,1,0,0,0,0,0,0,1,1,1,1,1,1,1;

Schedule:Day:Hourly, ce14c8f3-be08-4051-a924-ca6858ed1a24, Fraction,1,1,1,1,1,1,1,1,1,1,1,1,1,0,1,1,1,1,1,1,1,1,1,1;

Schedule:Day:Hourly, c3c36dcf-4c1d-4c8b-8534-42c2ad4c5ad8, Fraction,1,1,1,1,1,1,1,1,1,1,1,0,0,0,1,1,1,1,1,1,1,1,1,1;

Schedule:Day:Hourly, 982cbe55-da32-4f35-a18e-aeaafc8cb0b3, Fraction,1,1,1,1,1,1,1,1,1,1,1,1,0,0,0,0,1,1,1,1,1,1,1,1;

Schedule:Day:Hourly, 91c0d1b7-a7b0-4b30-929c-a76e3245cede, Fraction,1,1,1,0,0,0,0,0,1,1,1,0,0,0,0,0,1,1,1,1,1,1,1,1;

Schedule:Day:Hourly, 0c932124-0cd9-45d6-8757-43597c289681, Fraction,0,0,0,1,0,0,0,0,1,1,1,0,0,0,0,0,0,1,1,1,1,1,1,0;

Schedule:Day:Hourly, 56f29499-99d1-4e36-84d6-6341f5db69f4, Fraction,0,0,0,0,0,0,0,0,1,1,1,0,0,0,0,0,0,1,1,1,1,1,1,0;

Schedule:Day:Hourly, 9275d2fc-2a43-4701-a9da-08a2d8185c06, Fraction,0,0,0,0,1,1,1,0,1,1,0,0,0,0,0,0,0,1,1,1,1,1,1,1;

Schedule:Day:Hourly, c0c54f6c-8884-442c-b002-f8cc31b18a9f, Fraction,0,0,0,0,1,1,1,1,1,1,1,0,0,0,0,0,0,1,1,1,1,1,1,1;

Schedule:Day:Hourly, 9e714302-3d54-4d24-9e56-1853b4432ed5, Fraction,1,1,1,1,1,1,1,1,1,1,1,0,0,0,0,0,1,1,1,1,1,0,0,0;

Schedule:Day:Hourly, e78f57e5-5213-49bf-8813-5a9fda860091, Fraction,0,0,0,0,0,0,0,0,0,0,1,1,1,1,0,0,1,1,1,0,0,1,0,1;

Schedule:Day:Hourly, 54ef1873-ddc2-42a3-83f3-e0a4f7cf0801, Fraction,1,0,0,0,0,0,0,0,0,0,0,0,1,0,1,0,0,0,0,0,0,0,0,0;

Schedule:Day:Hourly, b08f153b-0886-4b1c-93e8-8174a0079cec, Fraction,0,0,0,0,0,0,0,0,1,1,1,0,1,0,0,1,1,1,1,0,1,0,0,0;

Schedule:Day:Hourly, dc30819b-fcc9-4b43-8982-057702bd865d, Fraction,0,0,0,0,0,0,0,0,1,1,1,0,0,0,0,0,0,0,1,1,1,1,1,1;

Schedule:Day:Hourly, 4fc32eac-1523-48f7-9e49-02675d249cb1, Fraction,0,1,0,0,0,1,0,0,1,1,1,0,0,0,0,0,0,1,1,1,1,1,1,1;

Schedule:Day:Hourly, f25784c1-35a1-4028-8149-79a5432f8fe1, Fraction,1,1,1,1,1,0,0,1,1,1,1,1,0,0,0,0,1,1,1,1,0,0,0,1;

Schedule:Day:Hourly, e7084eab-6503-4b63-b52b-776db332174c, Fraction,1,0,1,0,0,0,0,0,1,1,1,0,0,0,0,0,0,1,1,1,1,1,1,1;

Schedule:Day:Hourly, acd2ed40-f335-4859-b2df-d57ecf0e064a, Fraction,1,0,0,0,0,0,1,0,1,1,1,0,0,0,0,0,0,0,1,1,1,1,1,1;

Schedule:Day:Hourly, 9465b060-c919-45c3-858f-17b0ec2e0545, Fraction,1,1,1,0,0,0,0,0,1,1,1,0,0,0,0,0,0,0,1,1,1,1,1,1;

Schedule:Day:Hourly, 613a1e73-45c6-4df7-84ed-0874f544414c, Fraction,1,1,1,1,0,0,0,0,1,1,1,0,0,0,0,0,0,0,1,1,1,1,1,1;

Schedule:Day:Hourly, 05e90752-b7f7-43f5-a404-2e3dee32d087, Fraction,1,1,0,0,0,0,0,0,1,1,1,0,0,0,0,0,1,0,0,0,1,0,0,0;

Schedule:Day:Hourly, 340cdbea-2824-44fc-aa5e-01a0ed359164, Fraction,1,1,1,1,0,0,0,0,1,1,0,0,0,0,0,0,0,1,1,1,1,1,1,1;

Schedule:Day:Hourly, 14d82741-dd99-4ee7-a949-93d752d18689, Fraction,1,1,1,1,1,0,1,1,1,0,0,0,0,0,0,0,0,0,1,1,1,1,1,1;

Schedule:Day:Hourly, e9658675-d006-4883-9820-77fd4ba4bfd3, Fraction,1,1,1,0,0,0,0,1,1,1,1,0,0,0,0,0,0,0,1,1,1,1,1,1;

Schedule:Day:Hourly, a90c3863-74fb-4494-b0c1-6de60f0dda75, Fraction,0,0,0,1,0,1,0,0,1,1,1,1,0,0,0,0,0,1,1,1,1,1,1,1;

Schedule:Day:Hourly, 43e5c19a-6635-4ddc-b958-82927168ffbe, Fraction,1,1,0,0,0,0,0,0,1,0,0,0,0,0,1,0,1,1,1,0,1,1,0,0;

Schedule:Day:Hourly, c5b01f2a-dc6e-4e73-98f0-87f70ce5c191, Fraction,0,0,0,0,0,0,1,0,1,0,0,0,0,0,0,0,0,0,1,1,1,1,1,1;

Schedule:Day:Hourly, c73acd8c-245c-4ba4-82a2-e6153a57d641, Fraction,1,0,0,0,0,0,1,0,1,1,1,0,0,0,1,1,1,1,1,1,1,1,1,0;

Schedule:Day:Hourly, 2d56a03a-6ee9-4429-b497-c3ddc531cf71, Fraction,0,0,0,0,0,0,0,0,1,0,0,0,0,0,0,1,0,1,1,0,0,0,0,0;

Schedule:Day:Hourly, 2b6ff624-4e04-487d-ba37-6376db315ba4, Fraction,0,0,0,0,0,0,0,1,1,1,1,1,0,0,0,0,1,1,1,1,1,1,0,1;

Schedule:Day:Hourly, c5b66f65-a8a7-4a61-8ad5-03644a81dd28, Fraction,1,1,0,0,0,0,0,0,1,0,0,0,0,0,0,0,0,0,0,1,1,1,1,1;

Schedule:Day:Hourly, 57406b55-9aef-4c72-bc90-91d1cece7929, Fraction,0,0,0,0,0,0,0,0,1,1,0,0,0,1,1,1,1,1,1,0,1,0,0,0;

Schedule:Day:Hourly, c9527523-fef4-4b1e-9705-31c0563051fe, Fraction,0,0,0,0,0,0,0,0,1,1,1,0,0,0,0,0,1,1,1,1,1,0,0,0;

Schedule:Day:Hourly, 7f82e1f8-3fed-4702-a01f-abdc2c21d09c, Fraction,0,0,0,0,0,0,0,0,1,0,0,1,0,0,0,1,1,1,1,0,0,0,0,0;

Schedule:Day:Hourly, 23db8ac4-31b8-41ca-a944-c16b2572a681, Fraction,0,0,0,0,0,0,0,0,1,1,0,0,0,0,0,0,0,0,1,1,1,1,1,1;

Schedule:Day:Hourly, 05477049-26bb-4628-a72a-4d24176d04a6, Fraction,1,0,0,1,0,0,0,0,1,0,0,0,0,0,0,0,1,0,0,0,0,0,0,0;

Schedule:Day:Hourly, 77c9a84c-1430-4ab8-8f1e-8a387c7d56d2, Fraction,0,0,1,0,0,0,0,0,1,1,0,0,0,1,1,1,0,0,1,0,0,0,0,0;

Schedule:Day:Hourly, 5a2f310b-07bd-4f80-bd24-22e85727ea75, Fraction,0,0,0,0,0,0,0,0,1,1,0,0,0,0,0,1,0,0,0,0,0,0,0,0;

Schedule:Day:Hourly, 2dc62eb3-2c00-407d-a366-cf717eb8ce7d, Fraction,0,0,0,0,0,0,0,0,0,1,0,0,0,0,0,1,0,1,1,0,0,0,0,0;

Schedule:Day:Hourly, b2a8f0f1-d429-4ed2-b784-a1467a817b23, Fraction,0,0,0,0,0,0,0,0,0,0,0,0,0,0,1,1,1,1,1,1,1,0,0,0;

Schedule:Day:Hourly, c0c2b50c-5233-4238-b21e-6150e2c90a9a, Fraction,0,0,0,0,1,1,1,1,1,1,0,0,0,0,0,0,0,1,1,1,1,1,1,1;

Schedule:Day:Hourly, c87bc41b-7e52-4ec9-81ab-28f4333f17e2, Fraction,1,0,0,0,0,0,0,0,1,1,1,0,0,0,0,0,0,0,1,1,1,1,1,1;

Schedule:Day:Hourly, 25ce19ca-b763-49e3-9827-20dcf254a0ef, Fraction,1,0,1,1,0,1,0,1,1,1,0,0,0,0,0,0,0,1,1,1,1,1,1,1;

Schedule:Day:Hourly, 025d20a4-038b-4ae7-9002-e7f97060efc2, Fraction,1,0,0,0,0,0,0,0,1,0,0,0,0,0,0,0,0,0,1,1,1,1,1,1;

Schedule:Day:Hourly, 501f1c5f-22ae-414d-a58f-1be396d8b788, Fraction,1,1,1,1,0,1,1,1,1,0,0,0,0,0,0,0,0,0,0,1,1,1,1,1;

Schedule:Day:Hourly, 037de2d9-01a1-46c2-a948-6b00ae712a92, Fraction,1,1,1,1,0,0,1,0,1,1,0,0,1,0,0,0,0,0,0,0,0,0,0,0;

Schedule:Day:Hourly, 078e48d2-2d10-49f0-95fc-c90716d5cf71, Fraction,0,0,0,0,0,0,0,0,1,1,1,0,0,0,0,0,0,1,1,1,1,1,1,1;

Schedule:Day:Hourly, a4f29cf0-3812-4ff5-9787-1b356ed1f8c3, Fraction,1,0,0,0,0,0,0,0,1,1,0,0,0,1,1,1,1,1,1,1,1,1,1,0;

Schedule:Day:Hourly, d1b1c39d-20fc-4a14-a5d4-085977df3e60, Fraction,0,0,0,0,0,0,0,0,1,1,0,0,0,0,0,0,0,1,0,1,1,1,1,1;

Schedule:Day:Hourly, 7ff908e8-e2ad-4495-afbe-b1f3907aa5da, Fraction,1,1,1,1,0,0,1,1,1,1,0,0,1,1,1,0,0,1,1,0,0,0,0,0;

Schedule:Day:Hourly, 05ec2185-96a1-4de5-b3b1-93c4c1529b2e, Fraction,0,0,0,0,0,0,0,0,1,1,1,0,0,0,0,1,1,0,0,0,0,0,0,0;

Schedule:Day:Hourly, 7e0bb731-e4ef-4638-b5fb-2614602492ce, Fraction,0,0,0,0,0,0,0,0,1,1,1,0,0,0,0,1,0,0,1,1,1,1,1,1;

Schedule:Day:Hourly, 12842f21-d8bc-465c-9350-f873b5a8fd40, Fraction,1,1,1,1,0,1,1,1,1,0,1,0,0,0,1,0,0,0,0,0,0,0,0,0;

Schedule:Day:Hourly, eda7dc8c-19fe-4e05-a6d5-0b6cda74fbbf, Fraction,0,0,0,0,0,0,0,0,0,1,1,0,0,0,0,0,1,1,1,1,1,1,1,1;

Schedule:Day:Hourly, 2ed55e3b-1a74-47b5-b6dd-f2b7a28fc220, Fraction,0,0,0,0,0,0,0,0,1,0,0,0,0,0,0,1,1,1,1,1,1,1,1,1;

Schedule:Day:Hourly, 53c517d1-15a5-479a-8045-bae384e9339c, Fraction,0,0,0,1,0,0,1,0,1,1,1,0,0,0,1,1,1,1,1,1,1,1,1,1;

Schedule:Day:Hourly, 6d42e586-eba7-4e05-a397-1bac1b942902, Fraction,1,1,1,1,0,1,0,0,0,0,0,0,0,0,0,0,0,0,1,1,1,1,1,1;

Schedule:Day:Hourly, c7e53773-1c2d-497f-8d27-9f36e02b9a7d, Fraction,1,1,1,1,1,0,0,0,0,0,0,0,0,0,0,0,0,0,0,1,1,1,1,1;

Schedule:Day:Hourly, bad9f38d-d56c-4af6-a464-ccc616e36a8d, Fraction,1,1,1,1,0,1,0,1,1,0,0,0,0,0,0,0,0,0,0,1,1,1,1,1;

Schedule:Day:Hourly, 1dc6dc5f-b99f-4263-bb0e-adfe20f3dded, Fraction,1,1,1,1,0,0,0,0,1,0,0,0,0,0,0,0,0,0,0,1,1,1,1,1;

Schedule:Day:Hourly, c95d8c5a-cca6-4044-8a47-3da717f82028, Fraction,1,1,1,1,1,1,1,1,0,0,0,0,0,0,1,1,1,1,1,0,1,1,1,1;

Schedule:Day:Hourly, f1e85903-cc13-4b8d-bdde-1ca47628815a, Fraction,1,0,1,1,0,1,0,0,1,0,0,0,0,1,0,1,1,1,1,1,1,1,1,0;

Schedule:Day:Hourly, 256b33e3-552b-4680-9b0a-870d930f7e93, Fraction,0,1,0,0,0,0,0,1,1,0,0,0,1,1,0,0,0,1,1,1,1,1,1,1;

Schedule:Day:Hourly, ccff3a5c-ce33-4d74-a50a-1b0fb784204a, Fraction,0,0,1,0,0,0,0,0,1,0,0,0,0,0,0,1,1,1,1,1,1,1,1,1;

Schedule:Day:Hourly, 449c2a01-7984-47dc-9975-6d2b733a4a4e, Fraction,1,0,0,0,0,0,0,0,1,0,0,0,1,0,0,0,1,0,1,0,0,1,0,1;

Schedule:Day:Hourly, b28fc5c0-6a02-411f-aa29-2545ab5c1693, Fraction,0,0,0,0,0,0,0,0,1,1,1,1,0,1,1,1,1,1,1,1,1,1,0,1;

Schedule:Day:Hourly, 58f1c357-9c3a-49b1-9715-5360cfdaedc1, Fraction,0,0,1,0,0,0,0,0,1,0,0,0,0,0,0,0,0,0,1,1,1,1,1,1;

Schedule:Day:Hourly, 2b06c360-d777-433b-aea6-c226b915c1a8, Fraction,1,1,1,1,1,1,1,1,1,0,0,1,1,0,0,1,1,1,1,1,1,0,0,0;

Schedule:Day:Hourly, 71aa1198-f18a-4e8e-88c7-33212764596a, Fraction,0,0,0,0,0,0,1,1,1,1,0,0,0,0,0,0,0,0,1,1,1,1,1,1;

Schedule:Day:Hourly, d2731bbd-4a9e-4cae-989e-577b03c272ed, Fraction,1,1,1,1,1,1,1,1,1,1,0,0,0,0,0,0,0,0,1,1,1,1,1,1;

Schedule:Day:Hourly, 2fa06de4-b10c-4096-b117-f4e2764d98b9, Fraction,1,1,1,0,0,0,1,1,1,1,1,1,0,0,1,1,0,0,1,1,1,0,0,0;

Schedule:Day:Hourly, 5b3558f8-e899-445e-8bbb-81da23c0ad8e, Fraction,0,0,0,0,0,0,0,0,1,0,0,0,1,1,1,1,1,1,1,1,1,1,1,0;

Schedule:Day:Hourly, 82741c91-4db3-45cb-a7f7-b97c9e49b532, Fraction,0,0,0,0,0,0,0,0,0,1,1,1,0,0,0,0,1,1,1,1,1,1,0,0;

Schedule:Day:Hourly, 0a19ce5b-b12e-4763-837b-a981e4365968, Fraction,0,0,0,0,0,0,0,0,1,1,0,0,0,0,0,0,0,1,1,1,1,1,1,1;

Schedule:Day:Hourly, f2d8b086-bef9-4ee2-a225-c1024e742e3c, Fraction,0,0,0,0,0,0,0,0,1,1,0,0,0,0,1,1,0,0,0,0,0,0,0,0;

Schedule:Day:Hourly, 5e6b9d1c-d3b6-4a67-ab56-227b5dad1548, Fraction,0,0,0,0,0,0,0,0,1,1,0,0,0,0,1,1,1,0,0,0,0,0,0,0;

Schedule:Day:Hourly, e0159807-63be-4ce4-8559-2d154de80daa, Fraction,1,1,1,1,0,0,0,0,1,1,1,1,1,1,1,1,1,1,1,1,1,1,0,0;

Schedule:Day:Hourly, 7fcc53a5-d932-4ade-ab32-b6203e811e42, Fraction,0,0,0,0,0,0,0,0,0,0,0,0,0,0,0,0,0,0,0,1,1,1,1,1;

Schedule:Day:Hourly, 39ec39b2-4e5d-4aec-b9f7-14c75821dc19, Fraction,1,1,1,1,1,1,1,1,1,1,0,0,0,0,0,1,1,1,1,1,1,0,0,0;

Schedule:Day:Hourly, 04dd5f81-d687-4d05-b9b2-987389408bd4, Fraction,0,0,0,0,0,0,0,0,0,1,1,1,0,0,0,0,0,1,1,1,1,1,1,1;

Schedule:Day:Hourly, 4284daa1-9f3b-4eb3-9ace-481321d978d7, Fraction,1,0,1,1,1,0,0,0,1,1,0,0,0,1,1,1,1,1,1,1,1,1,1,1;

Schedule:Day:Hourly, cec2c09e-ea7a-4e97-b82b-e2a1278e73c9, Fraction,0,0,0,0,0,0,0,0,0,1,1,1,1,1,1,1,0,0,1,1,1,1,1,1;

Schedule:Day:Hourly, 2504830d-d145-4b8f-a04a-656c2a6152eb, Fraction,1,1,1,0,0,1,1,1,1,0,0,0,1,1,1,1,1,1,1,1,1,1,1,1;

Schedule:Day:Hourly, 172d5b6c-8353-4458-86ea-2c24105b43be, Fraction,1,1,1,1,1,1,1,1,1,0,0,0,1,1,1,1,1,1,1,1,0,0,0,0;

Schedule:Day:Hourly, f8bf2802-854b-4daf-9b48-506049b3ab1c, Fraction,0,0,0,0,0,0,0,0,1,1,0,0,0,0,0,0,0,0,0,1,1,1,1,1;

Schedule:Day:Hourly, e6efed90-1a70-4210-9203-60dd9ac8e579, Fraction,1,0,0,0,0,0,1,1,1,0,0,0,0,0,0,0,0,1,1,1,1,1,1,1;

Schedule:Day:Hourly, 3530dd22-4532-4c48-8a81-7935208ecb90, Fraction,1,0,0,0,0,0,0,0,0,1,1,0,0,0,0,0,1,1,1,1,1,1,1,1;

Schedule:Day:Hourly, 9e3955d3-bf00-47d6-b96d-28d39e1624fa, Fraction,1,1,1,1,1,1,1,1,1,1,1,1,0,0,0,0,1,1,1,1,1,1,1,0;

Schedule:Day:Hourly, a4b4137f-fc6c-43c9-8bc7-f9311de807df, Fraction,1,1,1,1,1,1,1,1,1,1,1,1,0,0,0,0,0,0,1,1,1,1,1,1;

Schedule:Day:Hourly, 88cbe414-93f5-4bee-b917-2b14a1f7763e, Fraction,1,1,0,0,0,0,0,0,1,1,1,1,1,1,1,1,1,1,1,1,1,1,1,1;

Schedule:Day:Hourly, 16afa7d7-94ac-47fe-9b70-90851e1ce147, Fraction,1,1,1,1,1,1,1,1,1,1,1,1,1,1,1,1,1,1,1,1,1,1,0,0;

Schedule:Day:Hourly, e392f12c-9b5e-42b1-a436-6e8c72e9a420, Fraction,1,1,1,0,0,0,0,0,0,1,1,1,1,1,1,1,0,1,1,1,1,1,1,1;

Schedule:Day:Hourly, eb496d9f-7b03-42c8-b2b5-9388d680626d, Fraction,1,1,1,0,0,0,0,0,1,1,0,0,0,0,0,0,0,1,1,1,1,1,1,1;

Schedule:Day:Hourly, a2639fa5-a44c-425f-928f-fbfd54647de3, Fraction,1,0,0,0,0,0,0,1,1,1,0,0,0,0,0,0,0,0,1,1,1,1,1,1;

Schedule:Day:Hourly, e842b1ed-882e-40c6-89eb-e7ada1740904, Fraction,1,0,0,0,0,0,0,0,0,0,0,1,0,0,0,0,0,0,1,1,1,1,1,1;

Schedule:Day:Hourly, 5e21c027-ff49-4f85-9e0c-380d8adc4031, Fraction,1,0,1,0,1,1,1,0,1,1,0,0,0,0,0,0,0,0,0,1,0,0,1,1;

Schedule:Day:Hourly, 8bb07672-a97f-4b36-a8ae-b5ca71a5752e, Fraction,1,1,1,1,1,1,1,1,1,1,0,0,0,0,0,0,0,0,0,0,1,1,1,1;

Schedule:Day:Hourly, f3217fa1-f4f1-456e-9388-868d0ba5f6a4, Fraction,1,1,1,1,1,1,1,1,1,1,0,1,1,0,0,0,0,0,0,1,1,1,1,1;

Schedule:Day:Hourly, 7d1175f0-7de8-4739-ba34-b31eefa34c3b, Fraction,1,1,1,0,0,1,1,1,1,0,0,0,0,1,1,1,1,1,1,1,1,1,0,1;

Schedule:Day:Hourly, 9fd23dfb-d7b6-4ddd-b35c-909e3cd5adb0, Fraction,1,0,0,0,0,1,0,0,1,1,1,1,0,0,0,0,0,0,0,1,1,1,1,1;

Schedule:Day:Hourly, 9c871d66-a670-4db2-ae81-92009fc3d116, Fraction,1,0,1,1,0,1,0,1,1,0,0,0,0,0,0,0,0,0,0,0,1,1,1,1;

Schedule:Day:Hourly, a1fc079c-703f-4d73-8040-82d353c810a1, Fraction,1,1,1,1,1,1,1,0,1,0,1,1,0,0,0,1,1,0,1,1,1,1,1,1;

Schedule:Day:Hourly, 89d3ed37-aa9c-467b-a228-9f02c00f5242, Fraction,1,1,1,0,0,0,0,1,1,1,1,0,0,0,0,0,0,1,1,1,1,1,1,1;

Schedule:Day:Hourly, ab2ac5eb-e2ff-46dd-a5cc-12c3b0c2eb95, Fraction,1,0,1,1,1,1,1,1,1,0,0,0,0,0,0,0,0,0,0,1,0,1,1,1;

Schedule:Day:Hourly, 384d51e8-ff4e-4925-9847-674f6f0f1032, Fraction,1,1,1,1,1,1,1,1,1,1,1,0,0,0,0,0,0,1,0,0,0,0,0,1;

Schedule:Day:Hourly, a05d72da-caf3-4e76-892a-c2c2f2ca984e, Fraction,1,0,0,1,0,1,1,0,1,1,1,0,0,0,1,1,0,1,1,0,0,0,0,1;

Schedule:Day:Hourly, 391ac6b8-3f26-4351-becd-bae6922c1028, Fraction,0,0,0,0,0,0,0,0,1,1,1,0,0,0,0,0,0,0,1,1,1,1,0,0;

Schedule:Day:Hourly, c75720f4-910b-4b9d-9911-97a795e95b61, Fraction,1,0,1,1,0,0,0,0,1,1,0,0,0,1,1,1,1,0,1,0,0,1,0,0;

Schedule:Day:Hourly, 1224162e-fc56-409b-8ae1-2d7516406fd8, Fraction,0,0,0,0,1,1,1,1,1,1,1,0,0,1,0,0,0,0,0,1,1,1,1,1;

Schedule:Day:Hourly, 6e34102d-1314-4ba4-811d-e85e3a57b682, Fraction,1,1,1,1,0,0,0,0,0,1,0,0,0,1,0,0,0,1,1,1,1,1,1,1;

Schedule:Day:Hourly, b77f4d82-8191-4bbf-9dfc-8dcbbf6d4c53, Fraction,1,0,0,0,0,0,0,0,1,1,1,0,0,0,0,0,1,1,1,1,1,1,1,1;

Schedule:Day:Hourly, 5f20789d-735b-4a34-afd7-af15ef7eccf9, Fraction,1,1,1,1,1,1,1,1,1,1,1,0,0,1,0,0,0,0,1,1,1,1,1,1;

Schedule:Day:Hourly, 4c2a1ccf-1952-4b35-a126-9fb1bbc23b8e, Fraction,1,1,1,1,1,1,1,1,1,0,1,0,0,0,0,0,0,0,1,1,1,1,1,1;

Schedule:Day:Hourly, dd1aa813-7d78-4e60-800e-e799cc7b8e8f, Fraction,1,1,1,1,1,1,1,1,1,1,0,0,0,1,0,0,0,0,1,1,1,1,1,1;

Schedule:Day:Hourly, b0b45b89-0624-46b0-b997-80cb3981b6f6, Fraction,1,1,1,1,1,1,0,0,0,1,0,1,1,1,1,1,1,1,1,0,1,1,1,1;

Schedule:Day:Hourly, 4e02bae5-8d40-46e4-bf81-d9c3b6358b2c, Fraction,0,1,1,1,0,1,1,1,1,1,0,0,1,0,0,0,0,1,1,1,1,1,1,1;

Schedule:Day:Hourly, 3613a1e6-3184-479d-b367-2738a7a3b3eb, Fraction,1,1,1,1,1,1,1,1,1,0,0,0,1,1,0,0,0,0,1,1,1,1,1,1;

Schedule:Day:Hourly, 9d69c5db-bd63-4630-97f2-9d120abb06c6, Fraction,1,1,1,1,1,1,1,1,1,0,0,0,1,1,0,0,0,1,1,1,1,1,1,1;

Schedule:Day:Hourly, 2cefe8fc-1770-49fb-a601-dfda7ff03f47, Fraction,1,1,1,1,0,1,1,1,1,1,0,0,0,0,0,0,0,0,1,1,1,1,0,1;

Schedule:Day:Hourly, 4037ee14-3254-4792-bfa8-2175360c13e9, Fraction,1,0,0,0,0,0,0,1,1,1,0,0,0,1,1,1,1,1,0,0,0,0,0,0;

Schedule:Day:Hourly, 3859748b-33c7-4e00-ae6e-b31e8bc7824f, Fraction,0,0,0,0,0,0,1,1,1,1,0,0,0,1,0,0,0,0,1,1,1,1,1,1;

Schedule:Day:Hourly, fcfa0c08-e85a-4563-91d3-8a378f8b00f7, Fraction,1,0,0,0,0,0,0,0,1,1,1,1,1,1,0,0,1,1,1,1,1,1,1,1;

Schedule:Day:Hourly, e833de29-0e5a-4eea-9e99-0dfe15560ea2, Fraction,0,1,0,0,0,0,0,0,1,1,0,0,0,0,0,0,0,0,0,0,0,0,0,0;

Schedule:Day:Hourly, 8cd0645c-e606-4bae-895c-ed213f6c0605, Fraction,0,0,0,0,0,0,0,0,0,0,1,1,0,1,1,1,1,1,1,1,1,1,1,0;

Schedule:Day:Hourly, e28f8a63-b26e-48a4-9dd2-da06f6fdb8a2, Fraction,0,0,0,0,0,0,0,0,1,1,1,1,1,1,0,0,1,1,1,1,0,1,1,0;

Schedule:Day:Hourly, 6d0e40b6-39de-4880-b0c4-78647832971f, Fraction,0,0,0,0,0,0,0,0,1,1,1,1,1,1,0,0,1,1,1,1,1,1,1,1;

Schedule:Day:Hourly, 3ec7528c-0076-4af2-82af-63e732710f14, Fraction,1,0,1,0,0,0,0,0,1,1,1,0,0,0,1,1,1,1,1,1,1,1,1,1;

Schedule:Day:Hourly, aa60f49c-668e-4b0b-a9f1-ecacc7d5058e, Fraction,1,0,0,0,0,0,0,0,0,1,1,0,0,0,0,0,0,1,1,1,1,1,1,1;

Schedule:Day:Hourly, 900f8897-d679-498c-964a-e08abe7a010a, Fraction,1,1,1,0,0,0,0,0,1,1,1,0,0,0,0,0,0,0,0,1,1,1,1,1;

Schedule:Day:Hourly, c1e3bcff-30e1-44de-966f-f72c3ee66235, Fraction,1,1,1,0,0,0,0,0,1,1,0,0,0,1,0,0,0,1,0,0,0,0,0,0;

Schedule:Day:Hourly, 38313005-a000-46bd-ba01-1acac6b541cf, Fraction,0,1,0,0,0,0,0,0,1,1,1,1,0,1,0,1,1,1,1,1,1,1,1,1;

Schedule:Day:Hourly, 9dc0585e-8f91-4f4c-b604-e2b31227b456, Fraction,1,1,1,1,1,1,1,1,1,1,1,1,1,0,0,0,1,1,1,1,1,1,1,1;

Schedule:Day:Hourly, 1a2d7176-5dcc-431d-90b4-390554eeb100, Fraction,1,1,1,1,0,1,1,1,1,1,1,0,0,0,0,0,0,1,1,1,1,1,1,1;

Schedule:Day:Hourly, 72a5ac29-5b7e-4f60-bd95-01e8e2bcc9b8, Fraction,1,1,1,1,0,1,1,1,1,0,0,1,1,0,0,0,0,0,0,0,0,0,0,0;

Schedule:Day:Hourly, 774414ca-9b7b-487a-a3fd-b98c21cf5772, Fraction,0,0,0,0,0,0,0,0,0,1,1,0,1,0,0,0,0,0,0,1,1,1,1,0;

Schedule:Day:Hourly, 2ef98014-9e6e-40a1-998c-dde77398ffc6, Fraction,0,0,0,0,0,0,0,0,1,1,1,1,1,1,0,0,0,1,1,1,1,1,1,1;

Schedule:Day:Hourly, 66da5199-9bc9-4ab5-9929-874f484ec80c, Fraction,1,1,0,1,1,1,1,0,1,1,1,1,1,0,0,0,0,1,1,1,1,1,0,1;

Schedule:Day:Hourly, b815dc28-a146-400f-ada0-94291b5d85a8, Fraction,1,1,0,0,0,0,0,0,1,1,1,0,0,0,0,0,0,0,1,1,1,1,1,1;

Schedule:Day:Hourly, 9ca5801f-9201-4f92-8b84-ba0a8e2b12f5, Fraction,1,1,0,0,0,0,0,0,1,1,0,0,0,0,0,0,0,0,0,1,1,1,1,1;

Schedule:Day:Hourly, f051a758-9935-4d23-87a9-78c9a44ec792, Fraction,1,1,0,0,0,0,0,0,1,0,0,0,0,0,0,0,0,0,1,1,1,1,1,1;

Schedule:Day:Hourly, e4cf45cf-9d0c-41e0-98f7-254dffee1c7f, Fraction,1,1,0,0,0,0,0,0,1,1,0,0,0,0,0,0,0,0,1,1,1,1,1,1;

Schedule:Day:Hourly, 1bad2eae-558a-4862-b4f6-068e4c6d0c3e, Fraction,1,1,0,0,0,0,0,0,1,0,1,0,0,0,0,0,0,0,1,1,1,1,1,1;

Schedule:Day:Hourly, 5829ae45-b3e7-4c8e-869c-9b532bf8cf87, Fraction,1,1,1,1,1,1,1,1,1,1,1,0,0,0,0,0,0,0,1,1,1,1,1,1;

Schedule:Day:Hourly, d039113e-f463-4c03-abfd-10bf9d994dbc, Fraction,1,1,1,1,1,1,1,1,1,0,0,0,0,0,0,0,0,1,1,1,1,1,1,1;

Schedule:Day:Hourly, 36769c08-9ea6-441e-9b14-0b76b2f37273, Fraction,1,0,0,0,0,0,0,0,0,0,0,0,1,1,1,0,0,1,1,1,1,1,1,1;

Schedule:Day:Hourly, 4b626bd2-ecf4-4f5d-8f0b-3299fc2b3475, Fraction,1,0,1,0,0,0,0,0,0,1,1,1,0,0,0,0,0,1,1,1,1,1,1,0;

Schedule:Day:Hourly, 456fd802-4dba-4a6a-bbdf-425ff04632ea, Fraction,1,1,1,0,0,0,1,0,1,1,1,0,1,1,1,1,1,1,1,1,1,1,1,1;

Schedule:Day:Hourly, 0beae952-e2e7-445f-82d1-229e610aec1a, Fraction,0,0,0,0,0,0,0,0,1,1,1,0,0,1,1,1,1,1,1,1,1,1,1,1;

Schedule:Day:Hourly, 5c412aa9-7adc-46ee-aad1-d03692015679, Fraction,1,1,1,1,1,1,0,0,1,1,1,1,0,0,0,1,1,1,1,1,1,1,1,1;

Schedule:Day:Hourly, a6052f76-024a-4bd9-8651-e7430569e010, Fraction,1,1,0,0,0,0,0,0,1,1,1,1,0,0,0,0,1,1,1,1,1,1,1,1;

Schedule:Day:Hourly, 75ec4b0a-24dc-4ac2-a103-f0e0a6c57565, Fraction,1,1,1,0,0,0,1,1,1,1,1,0,0,0,0,0,0,0,1,1,1,1,1,1;

Schedule:Day:Hourly, cf2e73bf-f1de-4712-8122-db40299147c0, Fraction,1,1,1,0,0,0,1,1,1,1,0,0,0,0,0,0,0,0,0,1,1,1,1,1;

Schedule:Day:Hourly, abb29aed-495a-4705-91f1-3a8a4e6eaa33, Fraction,1,1,1,1,1,0,0,1,1,1,1,1,1,1,1,1,1,1,1,1,1,1,1,1;

Schedule:Day:Hourly, 12baeba1-0667-4454-9826-5bab16f5419d, Fraction,1,1,1,1,1,1,1,1,1,1,1,1,0,1,0,0,0,0,1,1,1,1,1,1;

Schedule:Day:Hourly, 17a6f6de-60d5-407a-b38c-222811e372f2, Fraction,1,1,1,1,1,0,0,0,1,1,1,0,0,0,0,0,1,1,1,1,1,1,1,1;

Schedule:Day:Hourly, 839f8ba5-6ea3-4700-b89f-c7b4204c58a8, Fraction,1,1,1,1,1,1,1,1,1,0,1,0,0,0,1,0,1,1,1,1,1,1,1,1;

Schedule:Day:Hourly, 98e20fd5-ec77-4a29-ab28-b67d060ee3ae, Fraction,1,1,1,1,0,1,0,1,1,1,0,0,0,1,0,0,0,1,1,1,0,0,0,0;

Schedule:Day:Hourly, ad286d7e-cf2d-4cb6-850b-da9794831c3c, Fraction,0,0,1,1,0,0,0,0,1,1,1,1,1,1,1,1,1,1,1,1,1,1,1,1;

Schedule:Day:Hourly, 2804bb82-cf93-4438-b717-2d0e743d5c3d, Fraction,1,1,1,1,1,0,1,0,1,1,1,0,0,0,0,0,1,1,1,0,0,0,0,0;

Schedule:Day:Hourly, f3711ebd-20ee-47a3-a120-ae99c3915cda, Fraction,0,0,0,1,1,0,0,0,1,1,1,1,1,1,1,1,1,1,1,1,1,1,1,1;

Schedule:Day:Hourly, f8552814-95fb-4faf-bf3e-4dc852836b2e, Fraction,1,1,1,1,0,1,0,0,0,1,1,1,0,1,1,1,1,1,1,1,1,1,1,1;

Schedule:Day:Hourly, ea193628-ee63-4e7d-a4ef-ba010a4590a8, Fraction,1,1,1,0,1,1,1,1,1,1,1,0,0,1,0,0,1,0,1,1,1,1,1,1;

Schedule:Day:Hourly, 9ff5b696-66d5-46f9-911d-e197730c718c, Fraction,1,1,1,1,1,1,1,1,1,1,1,0,0,1,1,1,1,1,1,1,1,1,1,0;

Schedule:Day:Hourly, 6386544d-eb41-4799-a931-655595351d69, Fraction,0,1,0,0,0,0,0,0,1,1,1,0,0,0,0,0,1,1,1,1,1,1,1,1;

Schedule:Day:Hourly, a68df781-c898-4715-82ee-9973033a5855, Fraction,1,0,0,0,0,0,0,0,1,1,0,1,1,1,0,1,1,1,1,1,0,0,0,0;

Schedule:Day:Hourly, d29e0949-a8fd-42c1-9b1f-2bcca3f55f47, Fraction,0,0,0,1,0,1,1,1,1,1,1,1,0,0,0,0,1,0,1,1,1,1,1,1;

Schedule:Day:Hourly, f9368dbf-2435-47ef-9207-f03126fc2f0d, Fraction,1,1,1,1,1,1,0,0,1,1,1,0,0,1,1,1,1,1,1,1,1,1,1,1;

Schedule:Day:Hourly, eee479db-0118-4deb-9d6b-929e90944d5c, Fraction,1,0,0,0,0,0,1,0,0,0,0,1,1,1,1,1,1,1,1,1,1,1,1,1;

Schedule:Day:Hourly, 891d6362-1ea2-4d24-a009-0760a7f21d88, Fraction,1,1,1,0,1,0,0,1,1,1,1,0,1,0,0,0,0,0,0,1,1,1,1,1;

Schedule:Day:Hourly, 3a91f24a-5f68-4922-9edd-508e48ccae29, Fraction,1,1,1,0,0,0,1,1,1,1,1,1,0,0,0,0,1,1,1,1,1,1,1,1;

Schedule:Day:Hourly, b0f97bc9-d42f-4552-b32d-09ce4b61c4b7, Fraction,1,0,0,0,0,1,0,0,1,1,1,0,0,0,0,0,0,0,0,1,1,1,1,1;

Schedule:Day:Hourly, 513a59b9-3847-41fb-ae73-178a964f97f1, Fraction,1,1,0,0,0,1,1,0,1,1,0,0,0,0,0,0,0,0,0,0,1,1,1,1;

Schedule:Day:Hourly, 11dce33a-7dde-4a94-8c0e-b8d0768890a9, Fraction,1,1,1,1,1,1,1,0,1,1,0,0,0,0,0,0,1,0,0,0,0,0,1,1;

Schedule:Day:Hourly, cc7916bc-db8c-4281-8e08-35af3ecc6f88, Fraction,1,1,1,1,1,1,1,1,1,0,1,0,0,0,1,1,1,1,1,1,1,1,0,0;

Schedule:Day:Hourly, 353cba36-d3a3-4713-87cc-aa976bb6bc1b, Fraction,0,0,0,0,0,0,0,0,0,1,0,1,1,0,1,1,1,1,1,0,1,1,1,0;

Schedule:Day:Hourly, 203f3650-2c39-47c1-b070-4d0d170db42a, Fraction,0,0,0,0,0,0,0,0,1,1,1,0,0,0,1,1,0,0,1,1,1,1,1,0;

Schedule:Day:Hourly, aa15c890-87b4-4e87-a6e1-f0855e0f8342, Fraction,1,1,1,1,1,1,1,1,1,1,0,1,0,0,0,1,1,1,1,1,1,1,1,1;

Schedule:Day:Hourly, 463a59ec-8c1e-4717-b5b9-6d96e3aaf57c, Fraction,1,0,0,0,0,0,0,0,0,1,0,0,0,0,0,1,1,1,1,0,1,0,0,0;

Schedule:Day:Hourly, 5e69269b-5af9-43bf-8c07-ad1c1ed0810b, Fraction,1,1,1,1,0,0,0,0,0,0,0,1,1,1,1,1,1,1,0,1,1,1,1,1;

Schedule:Day:Hourly, 29320d22-cba8-4089-819f-c5d4d43fa96a, Fraction,1,0,1,1,0,1,1,0,1,1,0,0,0,1,1,0,1,1,1,1,1,1,1,1;

Schedule:Day:Hourly, adfe1933-65bc-4465-b5b6-b2480e6df779, Fraction,1,1,1,1,0,0,0,0,1,1,0,0,1,1,1,1,1,1,1,1,1,1,1,1;

Schedule:Day:Hourly, a1ae5c14-8bdd-4a1a-a4de-d8a3f16a8261, Fraction,1,1,1,1,1,0,1,1,1,0,1,0,0,0,0,0,1,1,1,1,1,1,1,0;

Schedule:Day:Hourly, 239bfcbd-ae48-45dc-b1e7-1cf5ed21ce2c, Fraction,0,0,0,0,0,0,0,0,1,0,0,0,0,0,0,0,1,1,1,1,1,1,1,1;

Schedule:Day:Hourly, 9fb9e60d-b04a-4eb7-ae36-549b63521ea5, Fraction,1,1,1,1,1,1,1,1,1,0,0,0,0,0,0,1,1,1,1,1,1,1,1,1;

Schedule:Day:Hourly, 5d3e0aeb-8186-4e1e-8625-4d2b086647ab, Fraction,1,0,1,1,0,0,0,0,1,0,0,0,0,0,0,0,0,0,1,1,1,1,1,1;

Schedule:Day:Hourly, 5cfce20f-4b5a-4f8f-9e99-0c27e035ead2, Fraction,1,1,0,0,0,0,0,0,1,1,1,1,1,0,1,0,0,1,1,1,1,1,1,1;

Schedule:Day:Hourly, 5caf8a2b-c64f-4e8a-a123-57e636d6520d, Fraction,1,1,0,0,0,0,0,0,0,0,1,1,1,1,1,1,1,1,1,1,0,1,1,1;

Schedule:Day:Hourly, 1d6c9646-011f-4b87-830c-9f2e81eb894e, Fraction,0,0,0,0,0,1,1,1,1,1,1,0,0,0,0,0,0,1,1,1,1,1,1,1;

Schedule:Day:Hourly, 95d5cc41-2e07-44f4-ae63-81b2ab534d86, Fraction,1,0,0,0,0,0,0,1,1,1,1,1,1,1,1,1,0,0,0,0,0,0,0,0;

Schedule:Day:Hourly, d87e7adf-db9b-40dc-8770-d5f13eed24d8, Fraction,1,0,1,1,0,1,1,1,1,1,1,1,0,1,1,1,1,1,1,1,1,1,1,1;

Schedule:Day:Hourly, 8c32f261-35d3-48b4-adc0-1cf36df87938, Fraction,1,0,0,0,0,0,0,0,0,0,1,1,1,1,1,0,0,1,1,1,1,1,1,1;

Schedule:Day:Hourly, fe562275-099b-4251-968d-a5f9efec591f, Fraction,0,0,0,1,0,0,0,0,1,1,0,0,0,0,0,0,0,0,1,1,1,1,1,1;

Schedule:Day:Hourly, e594e22a-3b08-4b96-86c9-808c022b34eb, Fraction,1,0,1,1,1,1,1,1,1,1,0,1,1,1,0,0,0,0,0,1,1,1,1,0;

Schedule:Day:Hourly, 46e82d33-941c-4582-934f-bdd72f7035ec, Fraction,0,0,0,0,0,1,0,0,0,1,1,1,1,0,0,1,1,1,1,1,1,1,1,0;

Schedule:Day:Hourly, 91aabb77-215b-4820-913d-1a8fc7472e1a, Fraction,0,0,0,0,0,0,1,1,1,1,1,0,0,0,0,0,0,1,1,1,1,1,1,1;

Schedule:Day:Hourly, 4b9158e0-831f-42d8-b00e-819baced24e7, Fraction,1,0,0,0,0,0,0,1,1,1,1,0,0,0,0,1,1,1,1,1,1,1,1,1;

Schedule:Day:Hourly, f316293b-0c08-40d4-92af-08044d437992, Fraction,1,1,0,0,0,0,0,1,1,1,0,0,0,0,1,1,1,1,1,1,1,1,1,1;

Schedule:Day:Hourly, e6a37407-86d4-4cb0-9234-5dc3a84775c9, Fraction,0,0,0,0,0,0,0,1,1,0,0,0,1,1,1,1,1,1,1,1,1,1,1,1;

Schedule:Day:Hourly, 8c39507f-33a6-4ff8-9f03-dbaed596b649, Fraction,0,0,0,0,0,0,0,0,1,0,0,1,1,1,0,0,1,1,1,1,1,1,1,1;

Schedule:Day:Hourly, b38128e5-a12c-4a58-9dde-fba743cebed9, Fraction,1,1,1,0,0,0,1,1,1,0,0,0,0,0,0,0,0,0,1,1,1,1,1,1;

Schedule:Day:Hourly, ae17bf7a-8927-4f96-a92c-3781f31dfd8a, Fraction,1,1,1,1,1,1,1,0,0,0,0,1,1,1,1,1,1,1,1,1,1,1,1,0;

Schedule:Day:Hourly, fe6554ca-8628-4ccb-8b54-dd986811f2d1, Fraction,0,0,0,0,0,0,0,0,1,1,1,0,0,0,0,1,1,1,0,0,0,0,0,0;

Schedule:Day:Hourly, 8ea2afa5-08b3-467e-b250-d4827c804e76, Fraction,0,0,0,0,0,0,0,0,0,0,0,0,0,0,0,1,1,1,1,0,0,0,1,0;

Schedule:Day:Hourly, c4e88e66-9f75-4da0-a6ac-0b33e877d0be, Fraction,0,0,0,0,0,0,0,0,1,1,0,0,1,0,1,1,1,1,1,1,1,1,1,0;

Schedule:Day:Hourly, bab81914-34e8-4ddd-aefc-6cd734d028f3, Fraction,0,0,0,0,0,0,0,1,1,1,0,1,1,1,1,1,1,1,1,0,0,0,0,0;

Schedule:Day:Hourly, 9b2fd4d4-d846-415c-a825-30a781462de6, Fraction,0,0,0,0,0,1,1,1,1,1,0,0,0,0,0,0,0,1,1,1,1,1,1,1;

Schedule:Day:Hourly, 5b1716bf-181d-41a3-9f7b-ef80271b80e1, Fraction,0,0,0,0,0,0,0,0,0,0,1,1,1,1,1,1,0,1,1,1,1,1,1,1;

Schedule:Day:Hourly, 6258f966-8523-4853-adef-4dee850f0adb, Fraction,0,0,0,0,0,0,0,0,0,0,0,0,1,1,1,1,1,1,1,1,1,0,0,0;

Schedule:Day:Hourly, 73f93269-daba-4ebc-b955-d1fd76d945a4, Fraction,0,0,0,0,0,0,0,1,1,1,0,0,0,0,0,0,0,1,1,1,1,0,0,0;

Schedule:Day:Hourly, e763b29b-bf6e-4e1d-9d0d-a4cabea98756, Fraction,0,0,0,0,0,0,0,0,1,1,0,0,0,0,1,0,0,0,0,0,0,0,0,0;

Schedule:Day:Hourly, 467dd736-25d9-4ff8-aedc-13087581dd97, Fraction,0,0,0,0,0,0,0,0,0,1,1,1,1,0,1,1,1,1,1,1,1,1,1,1;

Schedule:Day:Hourly, c55556ba-24e7-4d37-a9c1-061d3742c7f1, Fraction,0,0,0,0,0,0,0,0,1,0,0,0,0,0,0,0,0,1,0,0,0,0,0,0;

Schedule:Day:Hourly, af922f35-e0a1-4a27-84ea-d0b4e065dbe1, Fraction,0,0,0,0,0,0,0,0,1,1,0,0,0,0,0,0,1,1,1,1,1,1,0,0;

Schedule:Day:Hourly, c7cb1aeb-54ff-4a8e-84d2-727d32ad7ea7, Fraction,0,0,0,0,0,0,0,1,1,1,0,0,0,1,1,1,1,0,0,0,0,0,0,0;

Schedule:Day:Hourly, c123f562-3212-4e5b-b5e8-717f03e186c3, Fraction,0,0,0,0,0,0,0,0,1,1,0,0,0,0,0,0,0,1,1,1,1,1,1,0;

Schedule:Day:Hourly, 2402ecfe-94b4-47b4-b03e-b079a797f2cc, Fraction,0,0,0,0,1,0,0,1,1,1,1,0,0,0,0,0,1,1,1,1,1,1,1,1;

Schedule:Day:Hourly, 721af8e3-e3dd-4a62-bebc-bcd04a2a32d3, Fraction,1,1,1,1,1,0,0,0,1,1,1,1,1,0,1,1,1,1,1,1,1,1,1,1;

Schedule:Day:Hourly, b0220bd1-ae1f-441f-85d8-43b9a3f9bf12, Fraction,0,0,0,0,0,0,0,0,1,1,0,0,0,0,1,1,1,1,1,1,1,1,1,1;

Schedule:Day:Hourly, 4db6a0d2-96ca-40a1-a261-a9c12359bfe1, Fraction,1,1,1,1,1,1,1,0,1,1,1,1,1,0,1,1,1,1,1,1,1,1,0,0;

Schedule:Day:Hourly, a40d9d45-fe5e-4f79-952c-2cdd2428da93, Fraction,0,0,0,0,0,0,0,0,1,1,1,0,1,1,1,1,1,1,1,1,1,0,0,0;

Schedule:Day:Hourly, 707e449d-a96c-4640-91ee-fdb99aca6005, Fraction,0,0,0,0,0,0,0,0,1,1,1,1,0,0,0,1,1,1,1,1,1,1,0,0;

Schedule:Day:Hourly, 171b5ebe-801c-4f6d-a3d7-dc92ed8fdb8d, Fraction,0,0,0,0,0,0,0,0,0,1,1,1,0,0,1,1,1,1,1,0,0,0,0,0;

Schedule:Day:Hourly, 50aa25b0-5642-49e6-9fda-a143be1ea998, Fraction,0,0,0,0,0,0,0,0,1,0,1,1,0,0,0,0,0,0,0,0,0,0,0,0;

Schedule:Day:Hourly, 38c63bfb-621c-4173-89bb-438616ffccac, Fraction,0,0,0,0,0,0,0,0,1,1,0,1,1,1,1,1,1,1,0,0,0,0,0,0;

Schedule:Day:Hourly, a116b3bb-240f-4614-b137-b812d90a09a3, Fraction,0,0,0,0,0,0,0,0,0,1,1,1,1,0,1,1,1,1,0,0,0,0,0,0;

Schedule:Day:Hourly, c17eae3d-c4f2-42d2-afe3-8a47478f2633, Fraction,0,0,0,0,0,0,0,0,0,1,1,1,0,1,1,1,1,1,1,1,1,1,1,0;

Schedule:Day:Hourly, 862286db-472f-4d0f-9267-c752abee69ef, Fraction,0,0,0,0,0,0,0,0,0,1,1,1,0,0,0,0,1,0,0,0,0,0,0,0;

Schedule:Day:Hourly, a8ce2460-a807-4254-a3fd-f622ca65d6b1, Fraction,0,0,0,0,0,0,0,0,1,1,0,0,1,1,1,1,0,0,0,0,0,0,0,0;

Schedule:Day:Hourly, 7f3b4c83-f614-4fbc-a50e-f4f361623d3b, Fraction,0,0,0,0,0,0,0,0,1,1,1,1,0,0,0,0,0,0,0,0,0,0,0,0;

Schedule:Day:Hourly, af109099-3b5a-4e3a-8ded-8545fdd1c99d, Fraction,0,0,0,0,0,0,0,0,1,1,1,1,1,1,1,0,0,0,0,0,0,0,0,0;

Schedule:Day:Hourly, f1e3db6a-a0ef-40b8-abd5-b55dff7eb1fd, Fraction,0,0,0,0,0,0,0,0,0,0,0,0,0,0,0,1,1,1,0,0,0,0,0,0;

Schedule:Day:Hourly, c83eb53a-b2bc-4153-ac7c-1f3fba6df8c8, Fraction,0,0,0,0,0,0,0,0,1,0,0,0,0,0,0,0,0,0,0,0,0,0,0,0;

Schedule:Day:Hourly, 900d1e06-11c2-4448-89f8-e91c613a007b, Fraction,0,0,0,0,0,0,0,0,0,1,1,1,1,1,1,1,0,0,1,1,1,1,0,0;

Schedule:Day:Hourly, acc4b0a4-c586-4c4d-b2dd-c4c3f9f207f3, Fraction,0,0,0,0,0,0,0,1,1,1,0,0,0,0,0,0,0,1,1,1,1,1,1,1;

Schedule:Day:Hourly, 34d14f7a-b916-41d6-adb4-6f1575ce9a44, Fraction,1,0,0,0,0,0,0,0,1,1,0,1,0,0,0,1,1,1,1,1,1,1,1,0;

Schedule:Day:Hourly, 93a59cca-1fca-4aae-aac6-867199233573, Fraction,0,0,0,0,0,0,0,0,1,1,1,0,0,0,1,1,1,0,0,0,0,0,0,0;

Schedule:Day:Hourly, d1c9bc75-c058-45c0-a544-76fb4feea33c, Fraction,0,0,0,0,0,0,0,0,1,1,0,0,0,0,0,0,0,0,1,1,1,1,0,0;

Schedule:Day:Hourly, 74945d1f-06a4-4268-8a68-b03d2f7a42bb, Fraction,0,0,0,0,0,0,0,0,1,1,0,1,1,1,0,0,0,0,0,0,0,0,0,0;

Schedule:Day:Hourly, a9f7f320-338d-4e6c-8bf6-eb12e8f50895, Fraction,0,0,0,0,0,0,0,0,1,1,1,0,0,1,1,1,1,1,1,1,0,0,0,0;

Schedule:Day:Hourly, f3a633aa-f84f-466f-b1f1-74b93fcda673, Fraction,0,0,0,0,0,0,0,0,1,1,0,0,0,0,1,1,0,1,1,1,1,0,0,0;

Schedule:Day:Hourly, 0a520e93-22f5-4584-8d1d-d5505498a18d, Fraction,0,0,0,0,0,0,0,0,0,1,0,0,0,0,0,0,0,1,1,1,1,1,0,0;

Schedule:Day:Hourly, 4e5c9730-a45a-433e-b500-a79c2109b913, Fraction,0,0,0,0,0,0,0,0,1,1,0,0,0,1,0,0,1,1,0,0,0,0,0,0;

Schedule:Day:Hourly, bd02d315-dcd0-4845-be8b-5223ffb6df37, Fraction,0,0,0,0,0,0,0,0,0,1,1,1,1,0,1,1,1,1,1,1,1,0,0,0;

Schedule:Day:Hourly, 2f419156-0514-4ab8-85fa-0776184a07d2, Fraction,0,0,0,0,0,0,0,0,1,1,1,0,0,0,0,1,1,1,1,1,1,1,1,1;

Schedule:Day:Hourly, 93cd28ee-7434-4d9e-a5b9-5950b4f27840, Fraction,1,0,0,0,0,0,0,1,1,1,0,0,0,0,1,1,1,1,1,1,0,0,0,1;

Schedule:Day:Hourly, d9288765-6eec-4f12-a8e9-528d922dcb2e, Fraction,1,1,1,1,1,1,1,1,1,1,1,0,0,1,1,0,1,1,1,1,1,1,1,1;

Schedule:Day:Hourly, 8d7a03b9-8e40-417e-b178-7f101652e5b2, Fraction,1,1,1,1,1,1,1,1,1,1,1,0,0,0,0,1,1,1,1,1,1,1,1,1;

Schedule:Day:Hourly, ca6925f6-5c5c-4ac6-b935-d455f66a94cd, Fraction,1,1,1,1,1,1,1,1,1,1,1,0,1,1,1,1,1,1,1,1,1,1,1,1;

Schedule:Day:Hourly, b599c4b4-34f6-44c7-86da-6ef2a1616342, Fraction,1,1,1,1,0,1,1,1,1,1,1,0,0,0,1,1,1,1,1,1,1,1,1,1;

Schedule:Day:Hourly, 1273d4e8-8015-4a9d-80e0-d040d6bbee92, Fraction,1,1,1,1,0,1,1,1,1,1,1,0,0,0,1,0,0,0,1,1,0,0,0,0;

Schedule:Day:Hourly, 95012aa8-3333-4b32-a3cc-4de977a8940e, Fraction,0,0,0,0,0,0,0,0,0,0,0,0,0,0,0,0,0,0,0,0,0,0,0,0;

Schedule:Day:Hourly, 5563af15-18f1-47b5-9951-a78146bc41c7, Fraction,0,0,0,1,0,0,0,0,1,0,0,0,0,0,0,0,0,0,0,0,0,0,0,0;

Schedule:Day:Hourly, eb96f4fc-6bec-4c9a-96e9-f10a2b937ee5, Fraction,0,0,0,0,0,0,0,0,0,1,1,1,0,0,1,1,0,0,0,0,0,0,0,0;

Schedule:Day:Hourly, e62fcf05-bc2b-4ad6-a36e-3b90333e5145, Fraction,0,0,0,0,0,0,0,0,0,1,1,0,0,1,0,1,0,0,1,0,1,1,0,1;

Schedule:Day:Hourly, 2308900b-6c99-4183-8ff6-e51b2ba5e515, Fraction,1,0,0,0,0,0,0,0,0,0,0,0,0,1,1,1,1,1,1,1,0,0,0,0;

Schedule:Day:Hourly, 04f4fe2c-506c-40cf-b1bb-edc92b2bab27, Fraction,0,0,0,0,0,0,0,0,0,0,0,0,1,1,1,1,1,1,1,0,0,0,0,0;

Schedule:Day:Hourly, 046bab3e-654a-4591-8745-daee590c86ba, Fraction,0,0,0,0,0,0,0,0,0,0,0,0,0,0,1,0,0,0,1,0,0,0,0,0;

Schedule:Day:Hourly, b9e90960-8f2b-41d5-9752-42b5ee517533, Fraction,0,0,0,0,0,0,0,0,0,1,1,1,1,1,1,1,1,1,1,1,0,0,0,0;

Schedule:Day:Hourly, 4e73ec66-2a0b-4959-acf2-1b4a454661f5, Fraction,0,0,0,0,0,0,0,0,1,1,1,1,0,0,0,0,1,1,1,1,1,1,0,1;

Schedule:Day:Hourly, c29965d3-b159-48b6-96b6-c6148f016c84, Fraction,0,0,0,0,0,0,0,0,0,0,1,0,0,0,0,1,1,1,1,1,0,0,0,1;

Schedule:Day:Hourly, 3bff24ef-64f2-4de7-a03b-d7f5843ff033, Fraction,0,0,0,0,0,0,0,0,0,1,1,1,1,0,0,0,0,0,0,0,0,0,0,0;

Schedule:Day:Hourly, 6b519921-2569-4c9f-bd6d-ea0b94186af9, Fraction,0,0,0,0,0,0,0,0,0,0,1,1,1,1,1,1,1,0,1,0,0,0,0,0;

Schedule:Day:Hourly, 7614f939-5041-4a07-977c-f9116da5cbc9, Fraction,0,0,0,0,0,0,0,0,1,1,1,1,0,1,0,1,0,0,0,0,1,0,0,0;

Schedule:Day:Hourly, 5dbee988-9168-4de7-8b3f-76c8d2b5d5f3, Fraction,0,0,0,0,0,0,0,0,1,1,1,1,0,1,1,1,1,1,1,1,1,0,0,0;

Schedule:Day:Hourly, 1676533c-0f33-4902-a4c8-330657b57c97, Fraction,0,0,0,0,0,0,0,0,1,1,1,0,1,0,0,1,1,1,1,1,1,1,1,0;

Schedule:Day:Hourly, 9b9b0a3e-80c7-4d86-9910-6e57ae3a59c0, Fraction,0,0,1,1,0,0,1,0,1,1,1,1,0,1,1,1,1,1,1,1,1,1,1,1;

Schedule:Day:Hourly, 8bbbcc42-0e9f-421e-bd91-e60935f42508, Fraction,1,1,0,1,1,1,0,1,1,1,1,1,1,0,0,1,1,1,1,1,1,1,1,1;

Schedule:Day:Hourly, 524f5a45-bdb3-4824-b9ed-08a7e30e8521, Fraction,1,1,1,1,1,1,1,1,1,1,1,0,0,0,0,0,1,1,1,1,1,1,0,1;

Schedule:Day:Hourly, 1ab10b4b-f984-4963-9331-8c4d30db1c2d, Fraction,0,0,1,1,0,1,1,0,1,1,1,0,0,0,0,1,1,1,1,1,1,1,1,1;

Schedule:Day:Hourly, 4ecfaead-8de6-4bda-8e89-f0058d5f0d0e, Fraction,1,0,1,0,0,0,0,0,1,1,1,0,0,0,0,0,1,1,1,1,1,1,1,1;

Schedule:Day:Hourly, c0ff571f-0104-45c1-a290-e3d08bfea3af, Fraction,1,0,0,0,0,0,0,0,1,1,1,1,0,0,0,0,1,1,1,1,1,1,1,1;

Schedule:Day:Hourly, d3b457b6-98d5-4410-9f85-ea4af5e40fd1, Fraction,1,1,1,0,0,1,1,0,1,1,1,0,0,0,0,0,1,1,1,1,1,1,1,1;

Schedule:Day:Hourly, af574cab-18cb-4fa5-a31a-27d4ae13062d, Fraction,1,0,0,0,0,1,1,0,1,1,1,1,1,1,1,1,1,1,1,1,1,1,0,0;


Schedule:Year,GlobalCO2,
AnyNumber,
GlobalCO2_0,1,1,1,7, 
GlobalCO2_1,1,8,1,14, 
GlobalCO2_2,1,15,1,21, 
GlobalCO2_3,1,22,1,28, 
GlobalCO2_4,1,29,2,4, 
GlobalCO2_5,2,5,2,11, 
GlobalCO2_6,2,12,2,18, 
GlobalCO2_7,2,19,2,25, 
GlobalCO2_8,2,26,3,4, 
GlobalCO2_9,3,5,3,11, 
GlobalCO2_10,3,12,3,18, 
GlobalCO2_11,3,19,3,25, 
GlobalCO2_12,3,26,4,1, 
GlobalCO2_13,4,2,4,8, 
GlobalCO2_14,4,9,4,15, 
GlobalCO2_15,4,16,4,22, 
GlobalCO2_16,4,23,4,29, 
GlobalCO2_17,4,30,5,6, 
GlobalCO2_18,5,7,5,13, 
GlobalCO2_19,5,14,5,20, 
GlobalCO2_20,5,21,5,27, 
GlobalCO2_21,5,28,6,3, 
GlobalCO2_22,6,4,6,10, 
GlobalCO2_23,6,11,6,17, 
GlobalCO2_24,6,18,6,24, 
GlobalCO2_25,6,25,7,1, 
GlobalCO2_26,7,2,7,8, 
GlobalCO2_27,7,9,7,15, 
GlobalCO2_28,7,16,7,22, 
GlobalCO2_29,7,23,7,29, 
GlobalCO2_30,7,30,8,5, 
GlobalCO2_31,8,6,8,12, 
GlobalCO2_32,8,13,8,19, 
GlobalCO2_33,8,20,8,26, 
GlobalCO2_34,8,27,9,2, 
GlobalCO2_35,9,3,9,9, 
GlobalCO2_36,9,10,9,16, 
GlobalCO2_37,9,17,9,23, 
GlobalCO2_38,9,24,9,30, 
GlobalCO2_39,10,1,10,7, 
GlobalCO2_40,10,8,10,14, 
GlobalCO2_41,10,15,10,21, 
GlobalCO2_42,10,22,10,28, 
GlobalCO2_43,10,29,11,4, 
GlobalCO2_44,11,5,11,11, 
GlobalCO2_45,11,12,11,18, 
GlobalCO2_46,11,19,11,25, 
GlobalCO2_47,11,26,12,2, 
GlobalCO2_48,12,3,12,9, 
GlobalCO2_49,12,10,12,16, 
GlobalCO2_50,12,17,12,23, 
GlobalCO2_51,12,24,12,30, 
GlobalCO2_52,12,31,12,31;

Schedule:Week:Daily, GlobalCO2_0,
  a9e06d22-8af7-4182-98c2-1d8a89c17f5d, !- Sunday Schedule:Day Name
  dfea8acc-85d6-4a73-9f45-22cb3e50d15d, !- Monday Schedule:Day Name
  5ccb573f-bd39-4d23-a619-5107ba85c0fc, !- Tuesday Schedule:Day Name
  6486d3e3-4564-4e10-b915-bb8f345c3f30, !- Wednesday Schedule:Day Name
  270e02fd-12ab-4854-b813-f2e70f2aa958, !- Thursday Schedule:Day Name
  c1d899b9-1d22-4973-bcc7-674300fdd406, !- Friday Schedule:Day Name
  2335e58d-55d2-4c90-976a-2b431b8cf60c, !- Saturday Schedule:Day Name
  a9e06d22-8af7-4182-98c2-1d8a89c17f5d, !- Holiday Schedule:Day Name
  a9e06d22-8af7-4182-98c2-1d8a89c17f5d, !- SummerDesignDay Schedule:Day Name
  a9e06d22-8af7-4182-98c2-1d8a89c17f5d, !- WinterDesignDay Schedule:Day Name
  a9e06d22-8af7-4182-98c2-1d8a89c17f5d, !- CustomDay1 Schedule:Day Name
  a9e06d22-8af7-4182-98c2-1d8a89c17f5d; !- CustomDay2 Schedule:Day Name

Schedule:Week:Daily, GlobalCO2_1,
  b0973099-acac-4ed6-a90c-d8610c6fbe36, !- Sunday Schedule:Day Name
  a3ce78ab-12c7-4a40-aa4c-cedac5f30d05, !- Monday Schedule:Day Name
  b8460ecd-7d80-4272-abd5-ffca35feffba, !- Tuesday Schedule:Day Name
  306a3016-ca44-4f2f-b9da-c01598ee36ea, !- Wednesday Schedule:Day Name
  b5e959d2-63fd-4051-be42-a986ed6f608f, !- Thursday Schedule:Day Name
  2d5c764a-59bc-4ef0-af99-4b58e237a995, !- Friday Schedule:Day Name
  e2a97813-08f9-4043-a9cf-578ad9f5d1e5, !- Saturday Schedule:Day Name
  b0973099-acac-4ed6-a90c-d8610c6fbe36, !- Holiday Schedule:Day Name
  b0973099-acac-4ed6-a90c-d8610c6fbe36, !- SummerDesignDay Schedule:Day Name
  b0973099-acac-4ed6-a90c-d8610c6fbe36, !- WinterDesignDay Schedule:Day Name
  b0973099-acac-4ed6-a90c-d8610c6fbe36, !- CustomDay1 Schedule:Day Name
  b0973099-acac-4ed6-a90c-d8610c6fbe36; !- CustomDay2 Schedule:Day Name

Schedule:Week:Daily, GlobalCO2_2,
  d5927dfb-83a4-4449-956c-54f6e4d970ab, !- Sunday Schedule:Day Name
  9039f513-a932-4800-a808-c9cf7a8081d1, !- Monday Schedule:Day Name
  66cfd670-d788-4df0-8ec7-34d32b3740be, !- Tuesday Schedule:Day Name
  542dfe33-e6bc-4b54-82cf-a9b9df61636f, !- Wednesday Schedule:Day Name
  3d8d357a-bf02-469f-949c-da44387f06ba, !- Thursday Schedule:Day Name
  73f77af5-994d-46d9-a9dd-6f2be636d7fd, !- Friday Schedule:Day Name
  9243ea99-364b-4271-b9f2-8f998dcf0317, !- Saturday Schedule:Day Name
  d5927dfb-83a4-4449-956c-54f6e4d970ab, !- Holiday Schedule:Day Name
  d5927dfb-83a4-4449-956c-54f6e4d970ab, !- SummerDesignDay Schedule:Day Name
  d5927dfb-83a4-4449-956c-54f6e4d970ab, !- WinterDesignDay Schedule:Day Name
  d5927dfb-83a4-4449-956c-54f6e4d970ab, !- CustomDay1 Schedule:Day Name
  d5927dfb-83a4-4449-956c-54f6e4d970ab; !- CustomDay2 Schedule:Day Name

Schedule:Week:Daily, GlobalCO2_3,
  8aca0c45-cd02-4e78-bf82-039dd290ad50, !- Sunday Schedule:Day Name
  0403e98a-46d3-4764-aef1-279c5ee4c7a5, !- Monday Schedule:Day Name
  6ce810d2-181e-480e-bc27-866a6a050c62, !- Tuesday Schedule:Day Name
  d1de37aa-89b7-451d-b7bf-575ed572c8b0, !- Wednesday Schedule:Day Name
  b0074a06-3f1b-4be7-9659-42e346d5854a, !- Thursday Schedule:Day Name
  20edc90e-2009-4ec0-be76-37dcb7f47cdb, !- Friday Schedule:Day Name
  6353680f-e2f2-4752-989b-1181812c317c, !- Saturday Schedule:Day Name
  8aca0c45-cd02-4e78-bf82-039dd290ad50, !- Holiday Schedule:Day Name
  8aca0c45-cd02-4e78-bf82-039dd290ad50, !- SummerDesignDay Schedule:Day Name
  8aca0c45-cd02-4e78-bf82-039dd290ad50, !- WinterDesignDay Schedule:Day Name
  8aca0c45-cd02-4e78-bf82-039dd290ad50, !- CustomDay1 Schedule:Day Name
  8aca0c45-cd02-4e78-bf82-039dd290ad50; !- CustomDay2 Schedule:Day Name

Schedule:Week:Daily, GlobalCO2_4,
  ee03d8cb-7e0a-4045-95b6-e525834e44ff, !- Sunday Schedule:Day Name
  d9eb0c2c-4f37-4165-82c5-2794f36ad3e9, !- Monday Schedule:Day Name
  e25244c8-e9de-4599-9f21-d0e72d1f32f4, !- Tuesday Schedule:Day Name
  0e6c7ce1-7402-478a-87ca-531a93bfb8dc, !- Wednesday Schedule:Day Name
  552b88ae-3758-4042-b87b-4f4eb4b191dd, !- Thursday Schedule:Day Name
  781dcbe0-40bd-4535-9153-f525ed58297d, !- Friday Schedule:Day Name
  f7a8c397-8412-4e8c-b9f6-0e0ced01b01d, !- Saturday Schedule:Day Name
  ee03d8cb-7e0a-4045-95b6-e525834e44ff, !- Holiday Schedule:Day Name
  ee03d8cb-7e0a-4045-95b6-e525834e44ff, !- SummerDesignDay Schedule:Day Name
  ee03d8cb-7e0a-4045-95b6-e525834e44ff, !- WinterDesignDay Schedule:Day Name
  ee03d8cb-7e0a-4045-95b6-e525834e44ff, !- CustomDay1 Schedule:Day Name
  ee03d8cb-7e0a-4045-95b6-e525834e44ff; !- CustomDay2 Schedule:Day Name

Schedule:Week:Daily, GlobalCO2_5,
  e9ff5f89-5a07-4c09-91ef-aea48740e1d6, !- Sunday Schedule:Day Name
  dcc306d6-bb73-4121-95a3-e21055cbcefb, !- Monday Schedule:Day Name
  03be40b4-89af-4d65-a6d9-3e0fa8c5f02f, !- Tuesday Schedule:Day Name
  0ae72525-2c7e-4398-b66f-31618c63029d, !- Wednesday Schedule:Day Name
  7ccf8795-cdee-4db3-8389-1f56377caf55, !- Thursday Schedule:Day Name
  14f97083-caf1-49e2-b53b-e50c4ee68118, !- Friday Schedule:Day Name
  99a08e01-ac80-4449-954a-6ed502b7a610, !- Saturday Schedule:Day Name
  e9ff5f89-5a07-4c09-91ef-aea48740e1d6, !- Holiday Schedule:Day Name
  e9ff5f89-5a07-4c09-91ef-aea48740e1d6, !- SummerDesignDay Schedule:Day Name
  e9ff5f89-5a07-4c09-91ef-aea48740e1d6, !- WinterDesignDay Schedule:Day Name
  e9ff5f89-5a07-4c09-91ef-aea48740e1d6, !- CustomDay1 Schedule:Day Name
  e9ff5f89-5a07-4c09-91ef-aea48740e1d6; !- CustomDay2 Schedule:Day Name

Schedule:Week:Daily, GlobalCO2_6,
  ba5766d7-4565-4a70-91dd-d01a475af5a8, !- Sunday Schedule:Day Name
  82460426-55c8-4b03-b2a3-2b7ee2347f43, !- Monday Schedule:Day Name
  644570ec-f8ae-4e5a-a5f3-9ca7452d5d36, !- Tuesday Schedule:Day Name
  0af91715-7660-4225-86d2-0c0a352a58ad, !- Wednesday Schedule:Day Name
  a432f7ec-cfb0-44a8-8b62-92eaa53be850, !- Thursday Schedule:Day Name
  ad9110c6-a952-4ad2-a9d3-e726b36b3985, !- Friday Schedule:Day Name
  ad9110c6-a952-4ad2-a9d3-e726b36b3985, !- Saturday Schedule:Day Name
  ba5766d7-4565-4a70-91dd-d01a475af5a8, !- Holiday Schedule:Day Name
  ba5766d7-4565-4a70-91dd-d01a475af5a8, !- SummerDesignDay Schedule:Day Name
  ba5766d7-4565-4a70-91dd-d01a475af5a8, !- WinterDesignDay Schedule:Day Name
  ba5766d7-4565-4a70-91dd-d01a475af5a8, !- CustomDay1 Schedule:Day Name
  ba5766d7-4565-4a70-91dd-d01a475af5a8; !- CustomDay2 Schedule:Day Name

Schedule:Week:Daily, GlobalCO2_7,
  daef46d6-2616-48e7-9613-b693a2624434, !- Sunday Schedule:Day Name
  00439ad4-58cf-4de5-a95f-1b37733226ce, !- Monday Schedule:Day Name
  bdcec74d-b81b-4abf-9a93-b10534686e2c, !- Tuesday Schedule:Day Name
  e46d4536-5ba1-4534-b0de-aac6f58cfabc, !- Wednesday Schedule:Day Name
  e46d4536-5ba1-4534-b0de-aac6f58cfabc, !- Thursday Schedule:Day Name
  316e3c84-e71e-48fb-881b-31ebcf452729, !- Friday Schedule:Day Name
  36476ee1-e163-48d7-b56a-00b9ede619ae, !- Saturday Schedule:Day Name
  daef46d6-2616-48e7-9613-b693a2624434, !- Holiday Schedule:Day Name
  daef46d6-2616-48e7-9613-b693a2624434, !- SummerDesignDay Schedule:Day Name
  daef46d6-2616-48e7-9613-b693a2624434, !- WinterDesignDay Schedule:Day Name
  daef46d6-2616-48e7-9613-b693a2624434, !- CustomDay1 Schedule:Day Name
  daef46d6-2616-48e7-9613-b693a2624434; !- CustomDay2 Schedule:Day Name

Schedule:Week:Daily, GlobalCO2_8,
  36476ee1-e163-48d7-b56a-00b9ede619ae, !- Sunday Schedule:Day Name
  c279ab83-5c2a-4453-92dd-b0a9019c26b1, !- Monday Schedule:Day Name
  4128d981-5d79-4e21-8ded-0049e7e90892, !- Tuesday Schedule:Day Name
  21dd2429-a8e6-47db-a6f6-0c2fcf37c5a1, !- Wednesday Schedule:Day Name
  b3e9d66b-a87a-4e1d-a274-87d4ca5c6ef5, !- Thursday Schedule:Day Name
  ee083fcd-b60d-4d86-ab99-26a0e0864cb1, !- Friday Schedule:Day Name
  df3a2a3f-26dc-43b9-9466-4745128a8f04, !- Saturday Schedule:Day Name
  36476ee1-e163-48d7-b56a-00b9ede619ae, !- Holiday Schedule:Day Name
  36476ee1-e163-48d7-b56a-00b9ede619ae, !- SummerDesignDay Schedule:Day Name
  36476ee1-e163-48d7-b56a-00b9ede619ae, !- WinterDesignDay Schedule:Day Name
  36476ee1-e163-48d7-b56a-00b9ede619ae, !- CustomDay1 Schedule:Day Name
  36476ee1-e163-48d7-b56a-00b9ede619ae; !- CustomDay2 Schedule:Day Name

Schedule:Week:Daily, GlobalCO2_9,
  4dc5c3eb-a214-4cfe-8a3d-b7704b148938, !- Sunday Schedule:Day Name
  d8a4b967-7e72-44d9-8d18-94953d59b9bb, !- Monday Schedule:Day Name
  c953cd8e-3fa2-4c6d-9e4d-2f29ff39e343, !- Tuesday Schedule:Day Name
  4b771118-06f4-4ae4-858d-3f07783afb75, !- Wednesday Schedule:Day Name
  bee441f9-e78d-42f6-bd4a-212ff2502e1e, !- Thursday Schedule:Day Name
  7f16b4d6-3b7c-453a-926f-5dbf6d5843b2, !- Friday Schedule:Day Name
  3321420f-1064-462b-b2c8-b3e72f4b84cd, !- Saturday Schedule:Day Name
  4dc5c3eb-a214-4cfe-8a3d-b7704b148938, !- Holiday Schedule:Day Name
  4dc5c3eb-a214-4cfe-8a3d-b7704b148938, !- SummerDesignDay Schedule:Day Name
  4dc5c3eb-a214-4cfe-8a3d-b7704b148938, !- WinterDesignDay Schedule:Day Name
  4dc5c3eb-a214-4cfe-8a3d-b7704b148938, !- CustomDay1 Schedule:Day Name
  4dc5c3eb-a214-4cfe-8a3d-b7704b148938; !- CustomDay2 Schedule:Day Name

Schedule:Week:Daily, GlobalCO2_10,
  023d5181-697e-4e1e-9bae-11b044ad13c2, !- Sunday Schedule:Day Name
  68151919-b116-4e56-9037-86ccbab2562f, !- Monday Schedule:Day Name
  a9f0df60-4323-43c6-83db-ddc20d0a3005, !- Tuesday Schedule:Day Name
  6984837f-3d1e-4b55-8e22-610707a76bb7, !- Wednesday Schedule:Day Name
  f55d7656-879c-45c7-948e-665083c27779, !- Thursday Schedule:Day Name
  abfa283d-92c4-43ec-b2fb-0b270f8c31db, !- Friday Schedule:Day Name
  12a1b69a-e7c2-439e-93f6-0e318c3d7c46, !- Saturday Schedule:Day Name
  023d5181-697e-4e1e-9bae-11b044ad13c2, !- Holiday Schedule:Day Name
  023d5181-697e-4e1e-9bae-11b044ad13c2, !- SummerDesignDay Schedule:Day Name
  023d5181-697e-4e1e-9bae-11b044ad13c2, !- WinterDesignDay Schedule:Day Name
  023d5181-697e-4e1e-9bae-11b044ad13c2, !- CustomDay1 Schedule:Day Name
  023d5181-697e-4e1e-9bae-11b044ad13c2; !- CustomDay2 Schedule:Day Name

Schedule:Week:Daily, GlobalCO2_11,
  4e6524d2-b652-4370-85ed-708ff0776a5c, !- Sunday Schedule:Day Name
  11a741dd-0581-4e0b-b94a-62ebdd3be7b2, !- Monday Schedule:Day Name
  c45d74a7-756c-4a18-acf2-c80798bbe97c, !- Tuesday Schedule:Day Name
  6482e17a-d425-4aa5-bf2f-7ec30b8cb2d9, !- Wednesday Schedule:Day Name
  742404d5-256d-4e1d-8552-877db929bf1a, !- Thursday Schedule:Day Name
  e6b58673-6c2c-41a9-bc62-38576531b064, !- Friday Schedule:Day Name
  8a1acb23-a0de-410f-b6ee-9ee9aed81b03, !- Saturday Schedule:Day Name
  4e6524d2-b652-4370-85ed-708ff0776a5c, !- Holiday Schedule:Day Name
  4e6524d2-b652-4370-85ed-708ff0776a5c, !- SummerDesignDay Schedule:Day Name
  4e6524d2-b652-4370-85ed-708ff0776a5c, !- WinterDesignDay Schedule:Day Name
  4e6524d2-b652-4370-85ed-708ff0776a5c, !- CustomDay1 Schedule:Day Name
  4e6524d2-b652-4370-85ed-708ff0776a5c; !- CustomDay2 Schedule:Day Name

Schedule:Week:Daily, GlobalCO2_12,
  eca3a4d0-ce1a-4dcd-b1f9-7ea00815c9c3, !- Sunday Schedule:Day Name
  88d72d4d-55c4-49c2-87e4-21da5d984e20, !- Monday Schedule:Day Name
  1d74eabc-0e8b-4a79-89cb-61ff4ada8f79, !- Tuesday Schedule:Day Name
  56cbed0c-4200-44fa-bc95-ccf20dff1129, !- Wednesday Schedule:Day Name
  1f6e4217-093f-4c69-bd3a-e785b51d840d, !- Thursday Schedule:Day Name
  1750b521-6f24-42fb-a85a-01e9bc7195ce, !- Friday Schedule:Day Name
  c25fb954-4a37-4206-8b81-040e502b6c59, !- Saturday Schedule:Day Name
  eca3a4d0-ce1a-4dcd-b1f9-7ea00815c9c3, !- Holiday Schedule:Day Name
  eca3a4d0-ce1a-4dcd-b1f9-7ea00815c9c3, !- SummerDesignDay Schedule:Day Name
  eca3a4d0-ce1a-4dcd-b1f9-7ea00815c9c3, !- WinterDesignDay Schedule:Day Name
  eca3a4d0-ce1a-4dcd-b1f9-7ea00815c9c3, !- CustomDay1 Schedule:Day Name
  eca3a4d0-ce1a-4dcd-b1f9-7ea00815c9c3; !- CustomDay2 Schedule:Day Name

Schedule:Week:Daily, GlobalCO2_13,
  3fd5758f-6449-4869-9052-9ed5a5467add, !- Sunday Schedule:Day Name
  855c54e8-7e8e-459c-a6e4-d98030aecb91, !- Monday Schedule:Day Name
  32afd8d1-fbc3-481c-ae92-082298433b0e, !- Tuesday Schedule:Day Name
  ccb886c6-fd94-42e6-a932-dee5dab82ae6, !- Wednesday Schedule:Day Name
  7caab2fe-2924-4a36-a6f5-7755379dfc7f, !- Thursday Schedule:Day Name
  4bb0228f-f4ed-42f4-8762-36cdce83560b, !- Friday Schedule:Day Name
  af0e19d6-44ff-4e56-846c-3742baf1c71d, !- Saturday Schedule:Day Name
  3fd5758f-6449-4869-9052-9ed5a5467add, !- Holiday Schedule:Day Name
  3fd5758f-6449-4869-9052-9ed5a5467add, !- SummerDesignDay Schedule:Day Name
  3fd5758f-6449-4869-9052-9ed5a5467add, !- WinterDesignDay Schedule:Day Name
  3fd5758f-6449-4869-9052-9ed5a5467add, !- CustomDay1 Schedule:Day Name
  3fd5758f-6449-4869-9052-9ed5a5467add; !- CustomDay2 Schedule:Day Name

Schedule:Week:Daily, GlobalCO2_14,
  fefa940d-ca2a-4b43-8f78-59e35cf25b83, !- Sunday Schedule:Day Name
  558a4be7-ecc1-45ae-8b91-0de10d2cc19b, !- Monday Schedule:Day Name
  fc2a7414-e59e-4ec9-9c65-308bdf76d091, !- Tuesday Schedule:Day Name
  f41591d4-129d-4871-a6a0-416872f7401f, !- Wednesday Schedule:Day Name
  6b1bc1e4-6687-4d48-98a8-d1a2545e24b1, !- Thursday Schedule:Day Name
  956c2152-c519-409a-8c5e-0be828d9080b, !- Friday Schedule:Day Name
  bcc78c88-ae94-4103-ac19-49e0235baaf2, !- Saturday Schedule:Day Name
  fefa940d-ca2a-4b43-8f78-59e35cf25b83, !- Holiday Schedule:Day Name
  fefa940d-ca2a-4b43-8f78-59e35cf25b83, !- SummerDesignDay Schedule:Day Name
  fefa940d-ca2a-4b43-8f78-59e35cf25b83, !- WinterDesignDay Schedule:Day Name
  fefa940d-ca2a-4b43-8f78-59e35cf25b83, !- CustomDay1 Schedule:Day Name
  fefa940d-ca2a-4b43-8f78-59e35cf25b83; !- CustomDay2 Schedule:Day Name

Schedule:Week:Daily, GlobalCO2_15,
  4fd9298e-fed3-42d0-9cfc-df82c40bb556, !- Sunday Schedule:Day Name
  4f3134d4-dbda-4235-bffb-87c2b508ee6c, !- Monday Schedule:Day Name
  9b62f987-dccb-4150-9f2f-1959e3198ea9, !- Tuesday Schedule:Day Name
  1506f8f2-5b60-4296-be2c-95753d95c3a1, !- Wednesday Schedule:Day Name
  c475c9c3-5376-4528-a95b-7c300dc14040, !- Thursday Schedule:Day Name
  6f409680-f8ef-484b-a223-5f7fa9c2f6a5, !- Friday Schedule:Day Name
  2948b88e-edb8-4591-98cb-412e4311f179, !- Saturday Schedule:Day Name
  4fd9298e-fed3-42d0-9cfc-df82c40bb556, !- Holiday Schedule:Day Name
  4fd9298e-fed3-42d0-9cfc-df82c40bb556, !- SummerDesignDay Schedule:Day Name
  4fd9298e-fed3-42d0-9cfc-df82c40bb556, !- WinterDesignDay Schedule:Day Name
  4fd9298e-fed3-42d0-9cfc-df82c40bb556, !- CustomDay1 Schedule:Day Name
  4fd9298e-fed3-42d0-9cfc-df82c40bb556; !- CustomDay2 Schedule:Day Name

Schedule:Week:Daily, GlobalCO2_16,
  a9282c2a-9d4c-4387-8038-8b26c49d8db8, !- Sunday Schedule:Day Name
  1798806b-483a-46ee-8d46-286b2048a74e, !- Monday Schedule:Day Name
  ab6d8f55-cee8-4471-9876-8e7b58119c3c, !- Tuesday Schedule:Day Name
  cab03255-058d-4394-8654-49eeeb69fcb2, !- Wednesday Schedule:Day Name
  3a5b4273-59f0-49ff-8164-043d14a01766, !- Thursday Schedule:Day Name
  035fb30c-e112-4573-a606-a297ce86dbf0, !- Friday Schedule:Day Name
  1751632a-83cb-4cbf-a5b8-a80b483ad48a, !- Saturday Schedule:Day Name
  a9282c2a-9d4c-4387-8038-8b26c49d8db8, !- Holiday Schedule:Day Name
  a9282c2a-9d4c-4387-8038-8b26c49d8db8, !- SummerDesignDay Schedule:Day Name
  a9282c2a-9d4c-4387-8038-8b26c49d8db8, !- WinterDesignDay Schedule:Day Name
  a9282c2a-9d4c-4387-8038-8b26c49d8db8, !- CustomDay1 Schedule:Day Name
  a9282c2a-9d4c-4387-8038-8b26c49d8db8; !- CustomDay2 Schedule:Day Name

Schedule:Week:Daily, GlobalCO2_17,
  8bd32ad5-b957-408c-a10a-5c9c5eec5b3b, !- Sunday Schedule:Day Name
  0f5dddb8-c6d2-4e5d-b2ec-38ba8d864252, !- Monday Schedule:Day Name
  3b85c4ef-d3b7-4d1b-82d5-d515b83dabdf, !- Tuesday Schedule:Day Name
  f16cec83-b224-4bbe-97fc-e1d1c6cac2b4, !- Wednesday Schedule:Day Name
  af8c9a32-216c-4225-8d27-1679cca88730, !- Thursday Schedule:Day Name
  af8c9a32-216c-4225-8d27-1679cca88730, !- Friday Schedule:Day Name
  af8c9a32-216c-4225-8d27-1679cca88730, !- Saturday Schedule:Day Name
  8bd32ad5-b957-408c-a10a-5c9c5eec5b3b, !- Holiday Schedule:Day Name
  8bd32ad5-b957-408c-a10a-5c9c5eec5b3b, !- SummerDesignDay Schedule:Day Name
  8bd32ad5-b957-408c-a10a-5c9c5eec5b3b, !- WinterDesignDay Schedule:Day Name
  8bd32ad5-b957-408c-a10a-5c9c5eec5b3b, !- CustomDay1 Schedule:Day Name
  8bd32ad5-b957-408c-a10a-5c9c5eec5b3b; !- CustomDay2 Schedule:Day Name

Schedule:Week:Daily, GlobalCO2_18,
  af8c9a32-216c-4225-8d27-1679cca88730, !- Sunday Schedule:Day Name
  af8c9a32-216c-4225-8d27-1679cca88730, !- Monday Schedule:Day Name
  46315810-7baa-4aa1-977d-ea460a9d77d0, !- Tuesday Schedule:Day Name
  3b85c4ef-d3b7-4d1b-82d5-d515b83dabdf, !- Wednesday Schedule:Day Name
  3b85c4ef-d3b7-4d1b-82d5-d515b83dabdf, !- Thursday Schedule:Day Name
  05fa05ad-480d-4815-90f1-eb90c312a810, !- Friday Schedule:Day Name
  934527e2-1440-40b7-94e7-4e0d4183d97a, !- Saturday Schedule:Day Name
  af8c9a32-216c-4225-8d27-1679cca88730, !- Holiday Schedule:Day Name
  af8c9a32-216c-4225-8d27-1679cca88730, !- SummerDesignDay Schedule:Day Name
  af8c9a32-216c-4225-8d27-1679cca88730, !- WinterDesignDay Schedule:Day Name
  af8c9a32-216c-4225-8d27-1679cca88730, !- CustomDay1 Schedule:Day Name
  af8c9a32-216c-4225-8d27-1679cca88730; !- CustomDay2 Schedule:Day Name

Schedule:Week:Daily, GlobalCO2_19,
  035fb30c-e112-4573-a606-a297ce86dbf0, !- Sunday Schedule:Day Name
  54067366-b3ef-4872-a987-dbc1987c33a4, !- Monday Schedule:Day Name
  0b04c89e-e3ab-4085-8361-9fb05e46b865, !- Tuesday Schedule:Day Name
  9825f8e2-f318-4e13-b0d9-fa8566074cef, !- Wednesday Schedule:Day Name
  80a26800-fa58-4aa4-8ed9-f0ce1167ac04, !- Thursday Schedule:Day Name
  4f93fc5e-4157-46e0-b715-8a8972e39852, !- Friday Schedule:Day Name
  5604619a-79de-4cac-871b-810af992b037, !- Saturday Schedule:Day Name
  035fb30c-e112-4573-a606-a297ce86dbf0, !- Holiday Schedule:Day Name
  035fb30c-e112-4573-a606-a297ce86dbf0, !- SummerDesignDay Schedule:Day Name
  035fb30c-e112-4573-a606-a297ce86dbf0, !- WinterDesignDay Schedule:Day Name
  035fb30c-e112-4573-a606-a297ce86dbf0, !- CustomDay1 Schedule:Day Name
  035fb30c-e112-4573-a606-a297ce86dbf0; !- CustomDay2 Schedule:Day Name

Schedule:Week:Daily, GlobalCO2_20,
  b3896666-8b29-478f-844b-89d463ec7aaf, !- Sunday Schedule:Day Name
  9e8f7d1f-e878-4ed4-a496-e903c4aa0e9b, !- Monday Schedule:Day Name
  a88f1294-e31b-462a-a6aa-c2c48c08e80e, !- Tuesday Schedule:Day Name
  b24b984a-50f2-473b-90db-30f113aa3a79, !- Wednesday Schedule:Day Name
  d346a6af-5ee4-48dd-b873-88715b42af94, !- Thursday Schedule:Day Name
  3e7d56d0-809d-492c-9bc9-d49e06421314, !- Friday Schedule:Day Name
  5c127eec-5fab-41ae-b50c-3fc2cc3d119d, !- Saturday Schedule:Day Name
  b3896666-8b29-478f-844b-89d463ec7aaf, !- Holiday Schedule:Day Name
  b3896666-8b29-478f-844b-89d463ec7aaf, !- SummerDesignDay Schedule:Day Name
  b3896666-8b29-478f-844b-89d463ec7aaf, !- WinterDesignDay Schedule:Day Name
  b3896666-8b29-478f-844b-89d463ec7aaf, !- CustomDay1 Schedule:Day Name
  b3896666-8b29-478f-844b-89d463ec7aaf; !- CustomDay2 Schedule:Day Name

Schedule:Week:Daily, GlobalCO2_21,
  2c4ba2c7-fa39-45d3-a81f-297a77be86de, !- Sunday Schedule:Day Name
  cfc8267d-f4f7-405f-b730-bd117d724b5b, !- Monday Schedule:Day Name
  fd42f398-d260-4908-923c-fa5cfa708bef, !- Tuesday Schedule:Day Name
  de72ce23-d243-4510-9bdf-ba79bf178578, !- Wednesday Schedule:Day Name
  ae00655a-34e5-4794-ae3c-c49e22c524f2, !- Thursday Schedule:Day Name
  d7ec2e9f-993c-416c-b2c6-7501d07fef40, !- Friday Schedule:Day Name
  e528e896-9467-4d56-9348-23be5276b749, !- Saturday Schedule:Day Name
  2c4ba2c7-fa39-45d3-a81f-297a77be86de, !- Holiday Schedule:Day Name
  2c4ba2c7-fa39-45d3-a81f-297a77be86de, !- SummerDesignDay Schedule:Day Name
  2c4ba2c7-fa39-45d3-a81f-297a77be86de, !- WinterDesignDay Schedule:Day Name
  2c4ba2c7-fa39-45d3-a81f-297a77be86de, !- CustomDay1 Schedule:Day Name
  2c4ba2c7-fa39-45d3-a81f-297a77be86de; !- CustomDay2 Schedule:Day Name

Schedule:Week:Daily, GlobalCO2_22,
  405e6efe-7fec-4e96-a1cb-d5127cb878da, !- Sunday Schedule:Day Name
  38c7fdec-e5b5-46b8-b142-ec2bc3742990, !- Monday Schedule:Day Name
  54790983-0e36-4826-958c-477155234bd2, !- Tuesday Schedule:Day Name
  c5289f64-11a4-47b3-9913-f1c4670bf613, !- Wednesday Schedule:Day Name
  2d9aa1e0-daf1-4400-b4f9-553b60ebbb41, !- Thursday Schedule:Day Name
  de5eacf1-f22a-4fbe-930d-0b26c9490edb, !- Friday Schedule:Day Name
  2dd398da-1b55-4f01-a31d-f99a1a359154, !- Saturday Schedule:Day Name
  405e6efe-7fec-4e96-a1cb-d5127cb878da, !- Holiday Schedule:Day Name
  405e6efe-7fec-4e96-a1cb-d5127cb878da, !- SummerDesignDay Schedule:Day Name
  405e6efe-7fec-4e96-a1cb-d5127cb878da, !- WinterDesignDay Schedule:Day Name
  405e6efe-7fec-4e96-a1cb-d5127cb878da, !- CustomDay1 Schedule:Day Name
  405e6efe-7fec-4e96-a1cb-d5127cb878da; !- CustomDay2 Schedule:Day Name

Schedule:Week:Daily, GlobalCO2_23,
  9632c0af-fe57-4bc1-8cf6-f3bb37cfff0e, !- Sunday Schedule:Day Name
  bc1af20f-3b48-48a1-a0fb-9ee7e880d76e, !- Monday Schedule:Day Name
  cc83c0f0-5898-4db3-9034-6d463db2ec07, !- Tuesday Schedule:Day Name
  59429e58-1cb0-47a1-b272-60b0c76279df, !- Wednesday Schedule:Day Name
  7b096cd5-a9e6-440c-ac3d-f5ee8421ca5d, !- Thursday Schedule:Day Name
  b411f728-10ac-42ea-aa14-1225f65d33b5, !- Friday Schedule:Day Name
  c4590dbc-583c-450f-802b-b5f7d778f369, !- Saturday Schedule:Day Name
  9632c0af-fe57-4bc1-8cf6-f3bb37cfff0e, !- Holiday Schedule:Day Name
  9632c0af-fe57-4bc1-8cf6-f3bb37cfff0e, !- SummerDesignDay Schedule:Day Name
  9632c0af-fe57-4bc1-8cf6-f3bb37cfff0e, !- WinterDesignDay Schedule:Day Name
  9632c0af-fe57-4bc1-8cf6-f3bb37cfff0e, !- CustomDay1 Schedule:Day Name
  9632c0af-fe57-4bc1-8cf6-f3bb37cfff0e; !- CustomDay2 Schedule:Day Name

Schedule:Week:Daily, GlobalCO2_24,
  3e645fdd-c93e-439a-906d-2aaff7202d5a, !- Sunday Schedule:Day Name
  944dc0b0-ad63-4880-8697-63dcdf128bf6, !- Monday Schedule:Day Name
  84d4927d-8e1a-46a2-b73e-1b12d4ba13c6, !- Tuesday Schedule:Day Name
  15c1caaa-ee8f-475e-b32c-638ef55bd68a, !- Wednesday Schedule:Day Name
  a86e30b0-43f8-40d6-80dc-19c3d091303b, !- Thursday Schedule:Day Name
  4020f1a1-bbf7-40db-ae45-7d03e9a11cf6, !- Friday Schedule:Day Name
  58d92343-3ea0-4c68-97d3-39bb749d2d03, !- Saturday Schedule:Day Name
  3e645fdd-c93e-439a-906d-2aaff7202d5a, !- Holiday Schedule:Day Name
  3e645fdd-c93e-439a-906d-2aaff7202d5a, !- SummerDesignDay Schedule:Day Name
  3e645fdd-c93e-439a-906d-2aaff7202d5a, !- WinterDesignDay Schedule:Day Name
  3e645fdd-c93e-439a-906d-2aaff7202d5a, !- CustomDay1 Schedule:Day Name
  3e645fdd-c93e-439a-906d-2aaff7202d5a; !- CustomDay2 Schedule:Day Name

Schedule:Week:Daily, GlobalCO2_25,
  43e1d47a-b66b-4466-8395-7b1e848a22c3, !- Sunday Schedule:Day Name
  4804c8d6-4e17-45f1-9e22-039e2aa12615, !- Monday Schedule:Day Name
  18c68fb5-f79f-4ebf-a4c1-9e240905da67, !- Tuesday Schedule:Day Name
  cde88e7a-5e66-432e-8b20-e4a756addad2, !- Wednesday Schedule:Day Name
  d4af0813-cdde-494c-80ba-f33bb11f00b7, !- Thursday Schedule:Day Name
  6209eb25-eee4-4067-b80e-97a9b143a938, !- Friday Schedule:Day Name
  0909c5a0-5575-40ce-8c8d-e8b68116984b, !- Saturday Schedule:Day Name
  43e1d47a-b66b-4466-8395-7b1e848a22c3, !- Holiday Schedule:Day Name
  43e1d47a-b66b-4466-8395-7b1e848a22c3, !- SummerDesignDay Schedule:Day Name
  43e1d47a-b66b-4466-8395-7b1e848a22c3, !- WinterDesignDay Schedule:Day Name
  43e1d47a-b66b-4466-8395-7b1e848a22c3, !- CustomDay1 Schedule:Day Name
  43e1d47a-b66b-4466-8395-7b1e848a22c3; !- CustomDay2 Schedule:Day Name

Schedule:Week:Daily, GlobalCO2_26,
  b31a4c84-f758-4789-a66b-220f46f3f71a, !- Sunday Schedule:Day Name
  ec3c5200-a64c-4976-ab5a-36195255cad1, !- Monday Schedule:Day Name
  a20a34a1-a18f-4ae4-88f9-133e01925955, !- Tuesday Schedule:Day Name
  f0a41ace-3366-402b-9cf5-22800678b154, !- Wednesday Schedule:Day Name
  bc155388-965d-43e6-a47f-bbfc32a948e7, !- Thursday Schedule:Day Name
  c06ef4f3-7be0-46f0-ba0b-b25159ff3570, !- Friday Schedule:Day Name
  488df030-f919-4ed8-aa1d-a82516e4e17a, !- Saturday Schedule:Day Name
  b31a4c84-f758-4789-a66b-220f46f3f71a, !- Holiday Schedule:Day Name
  b31a4c84-f758-4789-a66b-220f46f3f71a, !- SummerDesignDay Schedule:Day Name
  b31a4c84-f758-4789-a66b-220f46f3f71a, !- WinterDesignDay Schedule:Day Name
  b31a4c84-f758-4789-a66b-220f46f3f71a, !- CustomDay1 Schedule:Day Name
  b31a4c84-f758-4789-a66b-220f46f3f71a; !- CustomDay2 Schedule:Day Name

Schedule:Week:Daily, GlobalCO2_27,
  34cd54fa-a0ef-4052-8cc3-6b054b69c143, !- Sunday Schedule:Day Name
  150e8699-f78c-4117-a9e5-32e7fb4718dc, !- Monday Schedule:Day Name
  847310d8-3732-4d66-9a17-25dce7cebbeb, !- Tuesday Schedule:Day Name
  29662d7b-9f9d-4312-8cff-71d8f73488e8, !- Wednesday Schedule:Day Name
  66e76b90-d0fa-4aae-9f0c-96866b6c44a2, !- Thursday Schedule:Day Name
  4293de69-0cd1-4bbf-8f37-8795994d9558, !- Friday Schedule:Day Name
  b06812de-2e9a-4d0b-84ae-2fcd6a9e2d17, !- Saturday Schedule:Day Name
  34cd54fa-a0ef-4052-8cc3-6b054b69c143, !- Holiday Schedule:Day Name
  34cd54fa-a0ef-4052-8cc3-6b054b69c143, !- SummerDesignDay Schedule:Day Name
  34cd54fa-a0ef-4052-8cc3-6b054b69c143, !- WinterDesignDay Schedule:Day Name
  34cd54fa-a0ef-4052-8cc3-6b054b69c143, !- CustomDay1 Schedule:Day Name
  34cd54fa-a0ef-4052-8cc3-6b054b69c143; !- CustomDay2 Schedule:Day Name

Schedule:Week:Daily, GlobalCO2_28,
  b58dec87-a39a-4617-8581-0b6932c878ec, !- Sunday Schedule:Day Name
  b33ade9a-993a-4ea7-8bd5-3c90f8842aac, !- Monday Schedule:Day Name
  132ebef0-7fd0-490b-9f0f-ff07a2514f91, !- Tuesday Schedule:Day Name
  71fab4a3-c71f-4411-bb5d-096997180b74, !- Wednesday Schedule:Day Name
  548a769c-cebd-4a49-a8ca-af60be407f58, !- Thursday Schedule:Day Name
  cdc66afd-937f-4622-ba71-bf9bb31323f0, !- Friday Schedule:Day Name
  96f7ec73-e0c5-4f8e-a335-d944732b2c41, !- Saturday Schedule:Day Name
  b58dec87-a39a-4617-8581-0b6932c878ec, !- Holiday Schedule:Day Name
  b58dec87-a39a-4617-8581-0b6932c878ec, !- SummerDesignDay Schedule:Day Name
  b58dec87-a39a-4617-8581-0b6932c878ec, !- WinterDesignDay Schedule:Day Name
  b58dec87-a39a-4617-8581-0b6932c878ec, !- CustomDay1 Schedule:Day Name
  b58dec87-a39a-4617-8581-0b6932c878ec; !- CustomDay2 Schedule:Day Name

Schedule:Week:Daily, GlobalCO2_29,
  6373cc7a-ff81-4c6d-9c9d-10ffe1e55367, !- Sunday Schedule:Day Name
  84fc9451-e8a1-4cd7-92eb-0bef7a9990a4, !- Monday Schedule:Day Name
  c0ce5ed0-6789-408a-97f1-d81856765170, !- Tuesday Schedule:Day Name
  f5b5c45e-28f0-4c72-ad63-b60dbd93e54c, !- Wednesday Schedule:Day Name
  661f2f61-36f1-4d2c-be3a-a0af740f86bb, !- Thursday Schedule:Day Name
  fae298be-f8eb-49b2-b512-269380ecb625, !- Friday Schedule:Day Name
  38b3ca64-65f7-4749-a647-6e5bb599f6af, !- Saturday Schedule:Day Name
  6373cc7a-ff81-4c6d-9c9d-10ffe1e55367, !- Holiday Schedule:Day Name
  6373cc7a-ff81-4c6d-9c9d-10ffe1e55367, !- SummerDesignDay Schedule:Day Name
  6373cc7a-ff81-4c6d-9c9d-10ffe1e55367, !- WinterDesignDay Schedule:Day Name
  6373cc7a-ff81-4c6d-9c9d-10ffe1e55367, !- CustomDay1 Schedule:Day Name
  6373cc7a-ff81-4c6d-9c9d-10ffe1e55367; !- CustomDay2 Schedule:Day Name

Schedule:Week:Daily, GlobalCO2_30,
  de56428a-fc5b-4e5a-a784-5ffaf9de98e9, !- Sunday Schedule:Day Name
  6f1a52bd-52bb-4894-a83f-6211b5b60048, !- Monday Schedule:Day Name
  f24cfab5-132c-4a0e-9a2f-8496bdc1685e, !- Tuesday Schedule:Day Name
  6591fd28-f0b4-4604-86e2-4250cb9a0c01, !- Wednesday Schedule:Day Name
  d7992eba-cdd5-41dd-857d-6672be6cf15d, !- Thursday Schedule:Day Name
  7a9109ee-3282-4991-926a-4b4421e40d2a, !- Friday Schedule:Day Name
  6d514d0c-706d-4b5c-aef9-19ac04c1d36c, !- Saturday Schedule:Day Name
  de56428a-fc5b-4e5a-a784-5ffaf9de98e9, !- Holiday Schedule:Day Name
  de56428a-fc5b-4e5a-a784-5ffaf9de98e9, !- SummerDesignDay Schedule:Day Name
  de56428a-fc5b-4e5a-a784-5ffaf9de98e9, !- WinterDesignDay Schedule:Day Name
  de56428a-fc5b-4e5a-a784-5ffaf9de98e9, !- CustomDay1 Schedule:Day Name
  de56428a-fc5b-4e5a-a784-5ffaf9de98e9; !- CustomDay2 Schedule:Day Name

Schedule:Week:Daily, GlobalCO2_31,
  b914231b-b850-4981-8e42-a43bf8ffe3e3, !- Sunday Schedule:Day Name
  bea2ddcd-08c9-4797-8a59-6d00079968ec, !- Monday Schedule:Day Name
  57fc6a4a-d98f-4ed5-bb5c-0d4b526a3f46, !- Tuesday Schedule:Day Name
  ef653af1-c13b-4f25-8b5d-6685e44aa173, !- Wednesday Schedule:Day Name
  281817ab-cc67-4619-8077-a34c5fb75b5a, !- Thursday Schedule:Day Name
  f0289c75-9fdf-41ce-9507-f2fc03e100f2, !- Friday Schedule:Day Name
  ef10c2ca-c492-4931-a4d7-1da6c03ada94, !- Saturday Schedule:Day Name
  b914231b-b850-4981-8e42-a43bf8ffe3e3, !- Holiday Schedule:Day Name
  b914231b-b850-4981-8e42-a43bf8ffe3e3, !- SummerDesignDay Schedule:Day Name
  b914231b-b850-4981-8e42-a43bf8ffe3e3, !- WinterDesignDay Schedule:Day Name
  b914231b-b850-4981-8e42-a43bf8ffe3e3, !- CustomDay1 Schedule:Day Name
  b914231b-b850-4981-8e42-a43bf8ffe3e3; !- CustomDay2 Schedule:Day Name

Schedule:Week:Daily, GlobalCO2_32,
  510cc484-24ad-4ed7-aefc-2167e0151d32, !- Sunday Schedule:Day Name
  917c3d10-276f-45d4-8ac5-970d8c7cc16f, !- Monday Schedule:Day Name
  df0441e7-5324-473c-9b92-d2caf1cec4bc, !- Tuesday Schedule:Day Name
  68092fcf-9f96-4035-9106-6e93bac79d25, !- Wednesday Schedule:Day Name
  1f7efa68-97ac-46f9-98ab-cf0983ffab30, !- Thursday Schedule:Day Name
  b323a3e2-5a15-494a-ad9e-67aff6dff608, !- Friday Schedule:Day Name
  8d8a98f4-22f6-4d09-85fc-fe46d97f2e59, !- Saturday Schedule:Day Name
  510cc484-24ad-4ed7-aefc-2167e0151d32, !- Holiday Schedule:Day Name
  510cc484-24ad-4ed7-aefc-2167e0151d32, !- SummerDesignDay Schedule:Day Name
  510cc484-24ad-4ed7-aefc-2167e0151d32, !- WinterDesignDay Schedule:Day Name
  510cc484-24ad-4ed7-aefc-2167e0151d32, !- CustomDay1 Schedule:Day Name
  510cc484-24ad-4ed7-aefc-2167e0151d32; !- CustomDay2 Schedule:Day Name

Schedule:Week:Daily, GlobalCO2_33,
  d5a7466e-667b-44b3-96a9-3590e6e04aaa, !- Sunday Schedule:Day Name
  e686d7cd-981e-4e05-a1d9-c0661d67d6b3, !- Monday Schedule:Day Name
  6dbdda34-a207-46ce-a994-c7fbba57435e, !- Tuesday Schedule:Day Name
  6b361b0b-7135-4a6b-bb5e-809fb926002f, !- Wednesday Schedule:Day Name
  6b361b0b-7135-4a6b-bb5e-809fb926002f, !- Thursday Schedule:Day Name
  6b361b0b-7135-4a6b-bb5e-809fb926002f, !- Friday Schedule:Day Name
  b7276b5d-90e6-4aa5-a49f-2cc7d8eaeac5, !- Saturday Schedule:Day Name
  d5a7466e-667b-44b3-96a9-3590e6e04aaa, !- Holiday Schedule:Day Name
  d5a7466e-667b-44b3-96a9-3590e6e04aaa, !- SummerDesignDay Schedule:Day Name
  d5a7466e-667b-44b3-96a9-3590e6e04aaa, !- WinterDesignDay Schedule:Day Name
  d5a7466e-667b-44b3-96a9-3590e6e04aaa, !- CustomDay1 Schedule:Day Name
  d5a7466e-667b-44b3-96a9-3590e6e04aaa; !- CustomDay2 Schedule:Day Name

Schedule:Week:Daily, GlobalCO2_34,
  205c3e3d-5732-498f-a9ca-7e78a26f9dc0, !- Sunday Schedule:Day Name
  18fc32ec-0d67-4620-8159-364dc4e0b581, !- Monday Schedule:Day Name
  a3be6d8c-ab75-48f0-a13d-945bba0e8492, !- Tuesday Schedule:Day Name
  69f76499-0f15-4a49-95f5-346ca42cb2a9, !- Wednesday Schedule:Day Name
  bc8d9958-55d3-4022-b7e8-179139bbfb40, !- Thursday Schedule:Day Name
  cbc38d1e-c11e-4388-8c3f-3fadeed47596, !- Friday Schedule:Day Name
  a3ae13ed-8ded-46ad-bf90-3cae0b46562b, !- Saturday Schedule:Day Name
  205c3e3d-5732-498f-a9ca-7e78a26f9dc0, !- Holiday Schedule:Day Name
  205c3e3d-5732-498f-a9ca-7e78a26f9dc0, !- SummerDesignDay Schedule:Day Name
  205c3e3d-5732-498f-a9ca-7e78a26f9dc0, !- WinterDesignDay Schedule:Day Name
  205c3e3d-5732-498f-a9ca-7e78a26f9dc0, !- CustomDay1 Schedule:Day Name
  205c3e3d-5732-498f-a9ca-7e78a26f9dc0; !- CustomDay2 Schedule:Day Name

Schedule:Week:Daily, GlobalCO2_35,
  eb6cf1ac-b684-4047-9ed4-8b22b802f819, !- Sunday Schedule:Day Name
  9c11aefb-06e2-47f3-b877-1b88317f094e, !- Monday Schedule:Day Name
  344e3403-bd8f-4bc7-a292-e3648e441097, !- Tuesday Schedule:Day Name
  a6483a3c-9cd1-44fa-ba26-697f684c1dcf, !- Wednesday Schedule:Day Name
  f2f07a4c-b06e-466b-ab59-1cb2b0abda83, !- Thursday Schedule:Day Name
  9aefa7ff-01ee-4117-81fe-f255f1b9a25b, !- Friday Schedule:Day Name
  ca61f951-9a6b-4f4e-b6a0-c2b2a45978c7, !- Saturday Schedule:Day Name
  eb6cf1ac-b684-4047-9ed4-8b22b802f819, !- Holiday Schedule:Day Name
  eb6cf1ac-b684-4047-9ed4-8b22b802f819, !- SummerDesignDay Schedule:Day Name
  eb6cf1ac-b684-4047-9ed4-8b22b802f819, !- WinterDesignDay Schedule:Day Name
  eb6cf1ac-b684-4047-9ed4-8b22b802f819, !- CustomDay1 Schedule:Day Name
  eb6cf1ac-b684-4047-9ed4-8b22b802f819; !- CustomDay2 Schedule:Day Name

Schedule:Week:Daily, GlobalCO2_36,
  36070e11-d26f-42dc-846d-e9712099c4ec, !- Sunday Schedule:Day Name
  80abeac0-d735-416c-b2c3-4cc538d5e5b1, !- Monday Schedule:Day Name
  f6ddb114-b025-4248-9f05-03350f965fbe, !- Tuesday Schedule:Day Name
  9eb310a4-e7e9-49f9-b7fe-521013d9c6df, !- Wednesday Schedule:Day Name
  ff70bdec-b2b4-442e-91cc-572a0b45be9e, !- Thursday Schedule:Day Name
  c219b387-2a0a-49ab-8c28-82701728819c, !- Friday Schedule:Day Name
  6f6ce6ea-64e4-4314-98e8-4d023b604f89, !- Saturday Schedule:Day Name
  36070e11-d26f-42dc-846d-e9712099c4ec, !- Holiday Schedule:Day Name
  36070e11-d26f-42dc-846d-e9712099c4ec, !- SummerDesignDay Schedule:Day Name
  36070e11-d26f-42dc-846d-e9712099c4ec, !- WinterDesignDay Schedule:Day Name
  36070e11-d26f-42dc-846d-e9712099c4ec, !- CustomDay1 Schedule:Day Name
  36070e11-d26f-42dc-846d-e9712099c4ec; !- CustomDay2 Schedule:Day Name

Schedule:Week:Daily, GlobalCO2_37,
  739d4b80-33ef-470a-8695-a5793ba69547, !- Sunday Schedule:Day Name
  a73565f7-7d98-4064-8bed-0068c15a8def, !- Monday Schedule:Day Name
  08e473de-7c1d-4bc7-a734-2217fce8d034, !- Tuesday Schedule:Day Name
  b3df6f71-4f6e-4a53-bb97-d768cafbe623, !- Wednesday Schedule:Day Name
  3642096a-f8ea-4f42-bc38-9b0bb7674890, !- Thursday Schedule:Day Name
  c9a3efdd-d7e8-4a6e-ad9e-d9d369564728, !- Friday Schedule:Day Name
  86166f7e-66ac-43c9-8f77-2c8c39365068, !- Saturday Schedule:Day Name
  739d4b80-33ef-470a-8695-a5793ba69547, !- Holiday Schedule:Day Name
  739d4b80-33ef-470a-8695-a5793ba69547, !- SummerDesignDay Schedule:Day Name
  739d4b80-33ef-470a-8695-a5793ba69547, !- WinterDesignDay Schedule:Day Name
  739d4b80-33ef-470a-8695-a5793ba69547, !- CustomDay1 Schedule:Day Name
  739d4b80-33ef-470a-8695-a5793ba69547; !- CustomDay2 Schedule:Day Name

Schedule:Week:Daily, GlobalCO2_38,
  a555ce13-d01d-490c-a84d-6e848db050f0, !- Sunday Schedule:Day Name
  7e9a4694-fbac-485c-bac4-b5f20619c913, !- Monday Schedule:Day Name
  113594cb-2003-4f99-be13-8df8e578f825, !- Tuesday Schedule:Day Name
  c9c3b810-f8ba-4a14-8037-b4ae0068e01e, !- Wednesday Schedule:Day Name
  e755842e-2dfa-4a2f-9e47-7da3ff66902d, !- Thursday Schedule:Day Name
  ce381a08-cf62-47cf-b212-75119150004a, !- Friday Schedule:Day Name
  17026b74-af9a-46d5-bf41-ad5a51680b90, !- Saturday Schedule:Day Name
  a555ce13-d01d-490c-a84d-6e848db050f0, !- Holiday Schedule:Day Name
  a555ce13-d01d-490c-a84d-6e848db050f0, !- SummerDesignDay Schedule:Day Name
  a555ce13-d01d-490c-a84d-6e848db050f0, !- WinterDesignDay Schedule:Day Name
  a555ce13-d01d-490c-a84d-6e848db050f0, !- CustomDay1 Schedule:Day Name
  a555ce13-d01d-490c-a84d-6e848db050f0; !- CustomDay2 Schedule:Day Name

Schedule:Week:Daily, GlobalCO2_39,
  ec9e43b5-9916-41d0-8a27-04733c822f5a, !- Sunday Schedule:Day Name
  06741b14-d668-4e68-a15a-061a2c179954, !- Monday Schedule:Day Name
  b054b00c-7ee0-48e5-9e33-6a3cd773750a, !- Tuesday Schedule:Day Name
  54921d2c-484e-47a9-b845-e794ffea01bf, !- Wednesday Schedule:Day Name
  5821d215-b020-4b58-8a0f-b5de4c036b53, !- Thursday Schedule:Day Name
  12a28182-b4ab-4e37-9041-9b1844437a71, !- Friday Schedule:Day Name
  b57530bc-768f-4bdc-ada6-d3733bfa51c7, !- Saturday Schedule:Day Name
  ec9e43b5-9916-41d0-8a27-04733c822f5a, !- Holiday Schedule:Day Name
  ec9e43b5-9916-41d0-8a27-04733c822f5a, !- SummerDesignDay Schedule:Day Name
  ec9e43b5-9916-41d0-8a27-04733c822f5a, !- WinterDesignDay Schedule:Day Name
  ec9e43b5-9916-41d0-8a27-04733c822f5a, !- CustomDay1 Schedule:Day Name
  ec9e43b5-9916-41d0-8a27-04733c822f5a; !- CustomDay2 Schedule:Day Name

Schedule:Week:Daily, GlobalCO2_40,
  2a6114a9-b5cc-42e3-8f65-f3527b89551e, !- Sunday Schedule:Day Name
  8788ae4a-49d2-47af-880a-2207b797f27a, !- Monday Schedule:Day Name
  7598447e-5616-483c-8e5e-437912e74a87, !- Tuesday Schedule:Day Name
  cadeff9f-75fb-4faa-8d5b-cb99d07e50cb, !- Wednesday Schedule:Day Name
  7477099c-8db3-48d8-bf1e-a64f971cdf2d, !- Thursday Schedule:Day Name
  a1505401-bf37-4752-bf0e-b2d30df46571, !- Friday Schedule:Day Name
  e68af410-e7b9-4812-a11f-73b01d9d1355, !- Saturday Schedule:Day Name
  2a6114a9-b5cc-42e3-8f65-f3527b89551e, !- Holiday Schedule:Day Name
  2a6114a9-b5cc-42e3-8f65-f3527b89551e, !- SummerDesignDay Schedule:Day Name
  2a6114a9-b5cc-42e3-8f65-f3527b89551e, !- WinterDesignDay Schedule:Day Name
  2a6114a9-b5cc-42e3-8f65-f3527b89551e, !- CustomDay1 Schedule:Day Name
  2a6114a9-b5cc-42e3-8f65-f3527b89551e; !- CustomDay2 Schedule:Day Name

Schedule:Week:Daily, GlobalCO2_41,
  e5fb0f2f-a449-414f-89fe-df27f2a10226, !- Sunday Schedule:Day Name
  f244eae2-b5ba-4b35-bc59-d310bd6a708f, !- Monday Schedule:Day Name
  1a147bf4-0a91-4df8-90c8-41d3b8457705, !- Tuesday Schedule:Day Name
  2de5a1b0-5c1f-4186-a66a-553d8b234bf2, !- Wednesday Schedule:Day Name
  9693988f-e836-4929-a511-45d023412ec4, !- Thursday Schedule:Day Name
  7b360a67-0db2-4ba2-afa6-43afc1a1ebac, !- Friday Schedule:Day Name
  52889985-5dce-4f18-908e-7cb101890a23, !- Saturday Schedule:Day Name
  e5fb0f2f-a449-414f-89fe-df27f2a10226, !- Holiday Schedule:Day Name
  e5fb0f2f-a449-414f-89fe-df27f2a10226, !- SummerDesignDay Schedule:Day Name
  e5fb0f2f-a449-414f-89fe-df27f2a10226, !- WinterDesignDay Schedule:Day Name
  e5fb0f2f-a449-414f-89fe-df27f2a10226, !- CustomDay1 Schedule:Day Name
  e5fb0f2f-a449-414f-89fe-df27f2a10226; !- CustomDay2 Schedule:Day Name

Schedule:Week:Daily, GlobalCO2_42,
  fb3e941d-27df-47af-8296-8da206404a2c, !- Sunday Schedule:Day Name
  87c9c03f-a844-44f1-8d30-c11eaee95e91, !- Monday Schedule:Day Name
  2d4d6497-995a-464f-809f-f142d885ad94, !- Tuesday Schedule:Day Name
  bb550daa-1eac-4432-9f1a-0f86e40df237, !- Wednesday Schedule:Day Name
  9c9a68e1-7f29-47b7-b8f2-b0bf476738a8, !- Thursday Schedule:Day Name
  5f5a49b4-f6b4-4740-b91e-4a54d82d0426, !- Friday Schedule:Day Name
  f8e91831-4e76-4ae7-be5b-102091a31d61, !- Saturday Schedule:Day Name
  fb3e941d-27df-47af-8296-8da206404a2c, !- Holiday Schedule:Day Name
  fb3e941d-27df-47af-8296-8da206404a2c, !- SummerDesignDay Schedule:Day Name
  fb3e941d-27df-47af-8296-8da206404a2c, !- WinterDesignDay Schedule:Day Name
  fb3e941d-27df-47af-8296-8da206404a2c, !- CustomDay1 Schedule:Day Name
  fb3e941d-27df-47af-8296-8da206404a2c; !- CustomDay2 Schedule:Day Name

Schedule:Week:Daily, GlobalCO2_43,
  71e5f07e-e988-408a-8da3-03d0d7ea9795, !- Sunday Schedule:Day Name
  8fdf5457-d12f-40b9-ab5c-2f8fd83cb06e, !- Monday Schedule:Day Name
  9535fdd4-b99d-45aa-9f38-b5ca95735e1b, !- Tuesday Schedule:Day Name
  f3bb02ab-7261-49ff-9e32-1a6e82b4f4ab, !- Wednesday Schedule:Day Name
  5da85aed-e530-4d9f-a559-7f7b2767d293, !- Thursday Schedule:Day Name
  89c7bb4a-f263-440a-bd3b-81ca4afce2b5, !- Friday Schedule:Day Name
  4083c8f9-3243-43fc-ad29-fbc049fec9d8, !- Saturday Schedule:Day Name
  71e5f07e-e988-408a-8da3-03d0d7ea9795, !- Holiday Schedule:Day Name
  71e5f07e-e988-408a-8da3-03d0d7ea9795, !- SummerDesignDay Schedule:Day Name
  71e5f07e-e988-408a-8da3-03d0d7ea9795, !- WinterDesignDay Schedule:Day Name
  71e5f07e-e988-408a-8da3-03d0d7ea9795, !- CustomDay1 Schedule:Day Name
  71e5f07e-e988-408a-8da3-03d0d7ea9795; !- CustomDay2 Schedule:Day Name

Schedule:Week:Daily, GlobalCO2_44,
  e97d34e2-fc8d-4583-a484-144202490f55, !- Sunday Schedule:Day Name
  e8bdb4f0-d10d-4ebc-9e0e-513b9654fdf9, !- Monday Schedule:Day Name
  ad129a40-6278-489c-be49-c8b82c145064, !- Tuesday Schedule:Day Name
  e9502646-dc84-4c86-8d20-3db7f9c57d34, !- Wednesday Schedule:Day Name
  44455802-18e4-41ed-95b5-79c3b7c61fc5, !- Thursday Schedule:Day Name
  9e79d15a-1c18-4314-a884-c69ae23be766, !- Friday Schedule:Day Name
  1211471d-4559-4126-abe2-4e44b35bcf03, !- Saturday Schedule:Day Name
  e97d34e2-fc8d-4583-a484-144202490f55, !- Holiday Schedule:Day Name
  e97d34e2-fc8d-4583-a484-144202490f55, !- SummerDesignDay Schedule:Day Name
  e97d34e2-fc8d-4583-a484-144202490f55, !- WinterDesignDay Schedule:Day Name
  e97d34e2-fc8d-4583-a484-144202490f55, !- CustomDay1 Schedule:Day Name
  e97d34e2-fc8d-4583-a484-144202490f55; !- CustomDay2 Schedule:Day Name

Schedule:Week:Daily, GlobalCO2_45,
  3931bb36-3c66-4c38-af07-ca82a2cbf62e, !- Sunday Schedule:Day Name
  8ddcc65e-a84f-40bc-81e7-7e1e63425776, !- Monday Schedule:Day Name
  67e9ae66-9164-499d-8813-cafeb7480b41, !- Tuesday Schedule:Day Name
  c2dc5fd5-9c19-4978-a448-23a744b2e2ae, !- Wednesday Schedule:Day Name
  b9f14bdf-2224-4dca-b966-5c17516ba9af, !- Thursday Schedule:Day Name
  7959cd14-1740-4d9e-a101-4f46a9eafd1f, !- Friday Schedule:Day Name
  1a71024a-20d6-4cd4-b3a6-0da434c95525, !- Saturday Schedule:Day Name
  3931bb36-3c66-4c38-af07-ca82a2cbf62e, !- Holiday Schedule:Day Name
  3931bb36-3c66-4c38-af07-ca82a2cbf62e, !- SummerDesignDay Schedule:Day Name
  3931bb36-3c66-4c38-af07-ca82a2cbf62e, !- WinterDesignDay Schedule:Day Name
  3931bb36-3c66-4c38-af07-ca82a2cbf62e, !- CustomDay1 Schedule:Day Name
  3931bb36-3c66-4c38-af07-ca82a2cbf62e; !- CustomDay2 Schedule:Day Name

Schedule:Week:Daily, GlobalCO2_46,
  4922b9ec-5a9f-40e9-86c0-bb92f47d8945, !- Sunday Schedule:Day Name
  f9cef37a-31d2-4ac7-859a-a320e9ea14c4, !- Monday Schedule:Day Name
  b87eae57-4fcf-4837-8cfe-60d5a930ea55, !- Tuesday Schedule:Day Name
  329a4d72-9627-42d1-8913-ba06d10d4151, !- Wednesday Schedule:Day Name
  7c5002f9-392c-43f1-85f5-d4c3adc9719d, !- Thursday Schedule:Day Name
  cbe31c1f-5570-479f-b038-490f4bfa0a79, !- Friday Schedule:Day Name
  937851a6-cb9e-4f6a-b1dc-481ec6acef92, !- Saturday Schedule:Day Name
  4922b9ec-5a9f-40e9-86c0-bb92f47d8945, !- Holiday Schedule:Day Name
  4922b9ec-5a9f-40e9-86c0-bb92f47d8945, !- SummerDesignDay Schedule:Day Name
  4922b9ec-5a9f-40e9-86c0-bb92f47d8945, !- WinterDesignDay Schedule:Day Name
  4922b9ec-5a9f-40e9-86c0-bb92f47d8945, !- CustomDay1 Schedule:Day Name
  4922b9ec-5a9f-40e9-86c0-bb92f47d8945; !- CustomDay2 Schedule:Day Name

Schedule:Week:Daily, GlobalCO2_47,
  c4792cc4-29a9-49f0-9d8e-5646f808c782, !- Sunday Schedule:Day Name
  307c7b4e-f3ed-4c6b-92bc-ace70a4925bc, !- Monday Schedule:Day Name
  1750b521-6f24-42fb-a85a-01e9bc7195ce, !- Tuesday Schedule:Day Name
  8b2cf12e-aaf8-480f-8b46-3ba7db07c3f2, !- Wednesday Schedule:Day Name
  855c54e8-7e8e-459c-a6e4-d98030aecb91, !- Thursday Schedule:Day Name
  32afd8d1-fbc3-481c-ae92-082298433b0e, !- Friday Schedule:Day Name
  ccb886c6-fd94-42e6-a932-dee5dab82ae6, !- Saturday Schedule:Day Name
  c4792cc4-29a9-49f0-9d8e-5646f808c782, !- Holiday Schedule:Day Name
  c4792cc4-29a9-49f0-9d8e-5646f808c782, !- SummerDesignDay Schedule:Day Name
  c4792cc4-29a9-49f0-9d8e-5646f808c782, !- WinterDesignDay Schedule:Day Name
  c4792cc4-29a9-49f0-9d8e-5646f808c782, !- CustomDay1 Schedule:Day Name
  c4792cc4-29a9-49f0-9d8e-5646f808c782; !- CustomDay2 Schedule:Day Name

Schedule:Week:Daily, GlobalCO2_48,
  1f6178b0-9d3d-4088-8c9e-6f0b54ef5352, !- Sunday Schedule:Day Name
  af0e19d6-44ff-4e56-846c-3742baf1c71d, !- Monday Schedule:Day Name
  4aaa1648-26d1-4ddc-82df-fb1f3f31c181, !- Tuesday Schedule:Day Name
  97a03fdc-cb38-4286-aab8-01e96e52c1a4, !- Wednesday Schedule:Day Name
  fc2a7414-e59e-4ec9-9c65-308bdf76d091, !- Thursday Schedule:Day Name
  9b9b918a-67b0-4972-978d-c52df8d4d631, !- Friday Schedule:Day Name
  4a4790e2-3c2e-4f10-a4fa-80c0e0e05156, !- Saturday Schedule:Day Name
  1f6178b0-9d3d-4088-8c9e-6f0b54ef5352, !- Holiday Schedule:Day Name
  1f6178b0-9d3d-4088-8c9e-6f0b54ef5352, !- SummerDesignDay Schedule:Day Name
  1f6178b0-9d3d-4088-8c9e-6f0b54ef5352, !- WinterDesignDay Schedule:Day Name
  1f6178b0-9d3d-4088-8c9e-6f0b54ef5352, !- CustomDay1 Schedule:Day Name
  1f6178b0-9d3d-4088-8c9e-6f0b54ef5352; !- CustomDay2 Schedule:Day Name

Schedule:Week:Daily, GlobalCO2_49,
  bcc78c88-ae94-4103-ac19-49e0235baaf2, !- Sunday Schedule:Day Name
  4fd9298e-fed3-42d0-9cfc-df82c40bb556, !- Monday Schedule:Day Name
  93afe4ea-75a2-4414-b05d-ae47a6af6487, !- Tuesday Schedule:Day Name
  59bb9a01-3d82-4d60-b00d-227f5cd071ae, !- Wednesday Schedule:Day Name
  c475c9c3-5376-4528-a95b-7c300dc14040, !- Thursday Schedule:Day Name
  04e6b0bc-369c-405e-b121-d592474ece97, !- Friday Schedule:Day Name
  a9282c2a-9d4c-4387-8038-8b26c49d8db8, !- Saturday Schedule:Day Name
  bcc78c88-ae94-4103-ac19-49e0235baaf2, !- Holiday Schedule:Day Name
  bcc78c88-ae94-4103-ac19-49e0235baaf2, !- SummerDesignDay Schedule:Day Name
  bcc78c88-ae94-4103-ac19-49e0235baaf2, !- WinterDesignDay Schedule:Day Name
  bcc78c88-ae94-4103-ac19-49e0235baaf2, !- CustomDay1 Schedule:Day Name
  bcc78c88-ae94-4103-ac19-49e0235baaf2; !- CustomDay2 Schedule:Day Name

Schedule:Week:Daily, GlobalCO2_50,
  fed868ca-7b3a-4263-9df0-6a163b5956c7, !- Sunday Schedule:Day Name
  cab03255-058d-4394-8654-49eeeb69fcb2, !- Monday Schedule:Day Name
  69ed0274-d41c-47e1-86e1-c953bf0cfa28, !- Tuesday Schedule:Day Name
  0f5dddb8-c6d2-4e5d-b2ec-38ba8d864252, !- Wednesday Schedule:Day Name
  951623fb-cdfe-47ac-97de-aa840c704033, !- Thursday Schedule:Day Name
  a9d75232-cf56-45c0-b8ae-137835a04c28, !- Friday Schedule:Day Name
  d711bad0-2e5a-456f-81f0-49d0586de370, !- Saturday Schedule:Day Name
  fed868ca-7b3a-4263-9df0-6a163b5956c7, !- Holiday Schedule:Day Name
  fed868ca-7b3a-4263-9df0-6a163b5956c7, !- SummerDesignDay Schedule:Day Name
  fed868ca-7b3a-4263-9df0-6a163b5956c7, !- WinterDesignDay Schedule:Day Name
  fed868ca-7b3a-4263-9df0-6a163b5956c7, !- CustomDay1 Schedule:Day Name
  fed868ca-7b3a-4263-9df0-6a163b5956c7; !- CustomDay2 Schedule:Day Name

Schedule:Week:Daily, GlobalCO2_51,
  385af9c0-ae42-4e3d-8f5a-bb685a97fa80, !- Sunday Schedule:Day Name
  7a614bb2-12ed-47fd-a74e-eb4f52a5f9b2, !- Monday Schedule:Day Name
  0600ea1e-799e-4295-ac6a-9189e6832fd0, !- Tuesday Schedule:Day Name
  9ce56ccc-6930-4dd1-bc59-f0d1332f9abe, !- Wednesday Schedule:Day Name
  e81670f0-5ecb-4e41-b1d2-c0c5180b02eb, !- Thursday Schedule:Day Name
  a571e0d0-42e5-41a9-a53a-0e89460e5a65, !- Friday Schedule:Day Name
  8595ce23-930c-4b1c-9331-84c12a663248, !- Saturday Schedule:Day Name
  385af9c0-ae42-4e3d-8f5a-bb685a97fa80, !- Holiday Schedule:Day Name
  385af9c0-ae42-4e3d-8f5a-bb685a97fa80, !- SummerDesignDay Schedule:Day Name
  385af9c0-ae42-4e3d-8f5a-bb685a97fa80, !- WinterDesignDay Schedule:Day Name
  385af9c0-ae42-4e3d-8f5a-bb685a97fa80, !- CustomDay1 Schedule:Day Name
  385af9c0-ae42-4e3d-8f5a-bb685a97fa80; !- CustomDay2 Schedule:Day Name

Schedule:Week:Daily, GlobalCO2_52,
  9b1fc940-cd49-438c-aec7-ad02deea2185, !- Sunday Schedule:Day Name
  9b1fc940-cd49-438c-aec7-ad02deea2185, !- Monday Schedule:Day Name
  9b1fc940-cd49-438c-aec7-ad02deea2185, !- Tuesday Schedule:Day Name
  9b1fc940-cd49-438c-aec7-ad02deea2185, !- Wednesday Schedule:Day Name
  9b1fc940-cd49-438c-aec7-ad02deea2185, !- Thursday Schedule:Day Name
  9b1fc940-cd49-438c-aec7-ad02deea2185, !- Friday Schedule:Day Name
  9b1fc940-cd49-438c-aec7-ad02deea2185, !- Saturday Schedule:Day Name
  9b1fc940-cd49-438c-aec7-ad02deea2185, !- Holiday Schedule:Day Name
  9b1fc940-cd49-438c-aec7-ad02deea2185, !- SummerDesignDay Schedule:Day Name
  9b1fc940-cd49-438c-aec7-ad02deea2185, !- WinterDesignDay Schedule:Day Name
  9b1fc940-cd49-438c-aec7-ad02deea2185, !- CustomDay1 Schedule:Day Name
  9b1fc940-cd49-438c-aec7-ad02deea2185; !- CustomDay2 Schedule:Day Name


Schedule:Year,ApartmentMidRise OCC_APT_SCH,
Fraction,
ApartmentMidRise OCC_APT_SCH_0,1,1,1,7, 
ApartmentMidRise OCC_APT_SCH_1,1,8,1,14, 
ApartmentMidRise OCC_APT_SCH_2,1,15,1,21, 
ApartmentMidRise OCC_APT_SCH_3,1,22,1,28, 
ApartmentMidRise OCC_APT_SCH_4,1,29,2,4, 
ApartmentMidRise OCC_APT_SCH_5,2,5,2,11, 
ApartmentMidRise OCC_APT_SCH_6,2,12,2,18, 
ApartmentMidRise OCC_APT_SCH_7,2,19,2,25, 
ApartmentMidRise OCC_APT_SCH_8,2,26,3,4, 
ApartmentMidRise OCC_APT_SCH_9,3,5,3,11, 
ApartmentMidRise OCC_APT_SCH_10,3,12,3,18, 
ApartmentMidRise OCC_APT_SCH_11,3,19,3,25, 
ApartmentMidRise OCC_APT_SCH_12,3,26,4,1, 
ApartmentMidRise OCC_APT_SCH_13,4,2,4,8, 
ApartmentMidRise OCC_APT_SCH_14,4,9,4,15, 
ApartmentMidRise OCC_APT_SCH_15,4,16,4,22, 
ApartmentMidRise OCC_APT_SCH_16,4,23,4,29, 
ApartmentMidRise OCC_APT_SCH_17,4,30,5,6, 
ApartmentMidRise OCC_APT_SCH_18,5,7,5,13, 
ApartmentMidRise OCC_APT_SCH_19,5,14,5,20, 
ApartmentMidRise OCC_APT_SCH_20,5,21,5,27, 
ApartmentMidRise OCC_APT_SCH_21,5,28,6,3, 
ApartmentMidRise OCC_APT_SCH_22,6,4,6,10, 
ApartmentMidRise OCC_APT_SCH_23,6,11,6,17, 
ApartmentMidRise OCC_APT_SCH_24,6,18,6,24, 
ApartmentMidRise OCC_APT_SCH_25,6,25,7,1, 
ApartmentMidRise OCC_APT_SCH_26,7,2,7,8, 
ApartmentMidRise OCC_APT_SCH_27,7,9,7,15, 
ApartmentMidRise OCC_APT_SCH_28,7,16,7,22, 
ApartmentMidRise OCC_APT_SCH_29,7,23,7,29, 
ApartmentMidRise OCC_APT_SCH_30,7,30,8,5, 
ApartmentMidRise OCC_APT_SCH_31,8,6,8,12, 
ApartmentMidRise OCC_APT_SCH_32,8,13,8,19, 
ApartmentMidRise OCC_APT_SCH_33,8,20,8,26, 
ApartmentMidRise OCC_APT_SCH_34,8,27,9,2, 
ApartmentMidRise OCC_APT_SCH_35,9,3,9,9, 
ApartmentMidRise OCC_APT_SCH_36,9,10,9,16, 
ApartmentMidRise OCC_APT_SCH_37,9,17,9,23, 
ApartmentMidRise OCC_APT_SCH_38,9,24,9,30, 
ApartmentMidRise OCC_APT_SCH_39,10,1,10,7, 
ApartmentMidRise OCC_APT_SCH_40,10,8,10,14, 
ApartmentMidRise OCC_APT_SCH_41,10,15,10,21, 
ApartmentMidRise OCC_APT_SCH_42,10,22,10,28, 
ApartmentMidRise OCC_APT_SCH_43,10,29,11,4, 
ApartmentMidRise OCC_APT_SCH_44,11,5,11,11, 
ApartmentMidRise OCC_APT_SCH_45,11,12,11,18, 
ApartmentMidRise OCC_APT_SCH_46,11,19,11,25, 
ApartmentMidRise OCC_APT_SCH_47,11,26,12,2, 
ApartmentMidRise OCC_APT_SCH_48,12,3,12,9, 
ApartmentMidRise OCC_APT_SCH_49,12,10,12,16, 
ApartmentMidRise OCC_APT_SCH_50,12,17,12,23, 
ApartmentMidRise OCC_APT_SCH_51,12,24,12,30, 
ApartmentMidRise OCC_APT_SCH_52,12,31,12,31;

Schedule:Week:Daily, ApartmentMidRise OCC_APT_SCH_0,
  fe21ae2a-573a-4dea-8d4e-e40d009b6d21, !- Sunday Schedule:Day Name
  fe21ae2a-573a-4dea-8d4e-e40d009b6d21, !- Monday Schedule:Day Name
  fe21ae2a-573a-4dea-8d4e-e40d009b6d21, !- Tuesday Schedule:Day Name
  fe21ae2a-573a-4dea-8d4e-e40d009b6d21, !- Wednesday Schedule:Day Name
  fe21ae2a-573a-4dea-8d4e-e40d009b6d21, !- Thursday Schedule:Day Name
  fe21ae2a-573a-4dea-8d4e-e40d009b6d21, !- Friday Schedule:Day Name
  fe21ae2a-573a-4dea-8d4e-e40d009b6d21, !- Saturday Schedule:Day Name
  fe21ae2a-573a-4dea-8d4e-e40d009b6d21, !- Holiday Schedule:Day Name
  fe21ae2a-573a-4dea-8d4e-e40d009b6d21, !- SummerDesignDay Schedule:Day Name
  fe21ae2a-573a-4dea-8d4e-e40d009b6d21, !- WinterDesignDay Schedule:Day Name
  fe21ae2a-573a-4dea-8d4e-e40d009b6d21, !- CustomDay1 Schedule:Day Name
  fe21ae2a-573a-4dea-8d4e-e40d009b6d21; !- CustomDay2 Schedule:Day Name

Schedule:Week:Daily, ApartmentMidRise OCC_APT_SCH_1,
  fe21ae2a-573a-4dea-8d4e-e40d009b6d21, !- Sunday Schedule:Day Name
  fe21ae2a-573a-4dea-8d4e-e40d009b6d21, !- Monday Schedule:Day Name
  fe21ae2a-573a-4dea-8d4e-e40d009b6d21, !- Tuesday Schedule:Day Name
  fe21ae2a-573a-4dea-8d4e-e40d009b6d21, !- Wednesday Schedule:Day Name
  fe21ae2a-573a-4dea-8d4e-e40d009b6d21, !- Thursday Schedule:Day Name
  fe21ae2a-573a-4dea-8d4e-e40d009b6d21, !- Friday Schedule:Day Name
  fe21ae2a-573a-4dea-8d4e-e40d009b6d21, !- Saturday Schedule:Day Name
  fe21ae2a-573a-4dea-8d4e-e40d009b6d21, !- Holiday Schedule:Day Name
  fe21ae2a-573a-4dea-8d4e-e40d009b6d21, !- SummerDesignDay Schedule:Day Name
  fe21ae2a-573a-4dea-8d4e-e40d009b6d21, !- WinterDesignDay Schedule:Day Name
  fe21ae2a-573a-4dea-8d4e-e40d009b6d21, !- CustomDay1 Schedule:Day Name
  fe21ae2a-573a-4dea-8d4e-e40d009b6d21; !- CustomDay2 Schedule:Day Name

Schedule:Week:Daily, ApartmentMidRise OCC_APT_SCH_2,
  fe21ae2a-573a-4dea-8d4e-e40d009b6d21, !- Sunday Schedule:Day Name
  fe21ae2a-573a-4dea-8d4e-e40d009b6d21, !- Monday Schedule:Day Name
  fe21ae2a-573a-4dea-8d4e-e40d009b6d21, !- Tuesday Schedule:Day Name
  fe21ae2a-573a-4dea-8d4e-e40d009b6d21, !- Wednesday Schedule:Day Name
  fe21ae2a-573a-4dea-8d4e-e40d009b6d21, !- Thursday Schedule:Day Name
  fe21ae2a-573a-4dea-8d4e-e40d009b6d21, !- Friday Schedule:Day Name
  fe21ae2a-573a-4dea-8d4e-e40d009b6d21, !- Saturday Schedule:Day Name
  fe21ae2a-573a-4dea-8d4e-e40d009b6d21, !- Holiday Schedule:Day Name
  fe21ae2a-573a-4dea-8d4e-e40d009b6d21, !- SummerDesignDay Schedule:Day Name
  fe21ae2a-573a-4dea-8d4e-e40d009b6d21, !- WinterDesignDay Schedule:Day Name
  fe21ae2a-573a-4dea-8d4e-e40d009b6d21, !- CustomDay1 Schedule:Day Name
  fe21ae2a-573a-4dea-8d4e-e40d009b6d21; !- CustomDay2 Schedule:Day Name

Schedule:Week:Daily, ApartmentMidRise OCC_APT_SCH_3,
  fe21ae2a-573a-4dea-8d4e-e40d009b6d21, !- Sunday Schedule:Day Name
  fe21ae2a-573a-4dea-8d4e-e40d009b6d21, !- Monday Schedule:Day Name
  fe21ae2a-573a-4dea-8d4e-e40d009b6d21, !- Tuesday Schedule:Day Name
  fe21ae2a-573a-4dea-8d4e-e40d009b6d21, !- Wednesday Schedule:Day Name
  fe21ae2a-573a-4dea-8d4e-e40d009b6d21, !- Thursday Schedule:Day Name
  fe21ae2a-573a-4dea-8d4e-e40d009b6d21, !- Friday Schedule:Day Name
  fe21ae2a-573a-4dea-8d4e-e40d009b6d21, !- Saturday Schedule:Day Name
  fe21ae2a-573a-4dea-8d4e-e40d009b6d21, !- Holiday Schedule:Day Name
  fe21ae2a-573a-4dea-8d4e-e40d009b6d21, !- SummerDesignDay Schedule:Day Name
  fe21ae2a-573a-4dea-8d4e-e40d009b6d21, !- WinterDesignDay Schedule:Day Name
  fe21ae2a-573a-4dea-8d4e-e40d009b6d21, !- CustomDay1 Schedule:Day Name
  fe21ae2a-573a-4dea-8d4e-e40d009b6d21; !- CustomDay2 Schedule:Day Name

Schedule:Week:Daily, ApartmentMidRise OCC_APT_SCH_4,
  fe21ae2a-573a-4dea-8d4e-e40d009b6d21, !- Sunday Schedule:Day Name
  fe21ae2a-573a-4dea-8d4e-e40d009b6d21, !- Monday Schedule:Day Name
  fe21ae2a-573a-4dea-8d4e-e40d009b6d21, !- Tuesday Schedule:Day Name
  fe21ae2a-573a-4dea-8d4e-e40d009b6d21, !- Wednesday Schedule:Day Name
  fe21ae2a-573a-4dea-8d4e-e40d009b6d21, !- Thursday Schedule:Day Name
  fe21ae2a-573a-4dea-8d4e-e40d009b6d21, !- Friday Schedule:Day Name
  fe21ae2a-573a-4dea-8d4e-e40d009b6d21, !- Saturday Schedule:Day Name
  fe21ae2a-573a-4dea-8d4e-e40d009b6d21, !- Holiday Schedule:Day Name
  fe21ae2a-573a-4dea-8d4e-e40d009b6d21, !- SummerDesignDay Schedule:Day Name
  fe21ae2a-573a-4dea-8d4e-e40d009b6d21, !- WinterDesignDay Schedule:Day Name
  fe21ae2a-573a-4dea-8d4e-e40d009b6d21, !- CustomDay1 Schedule:Day Name
  fe21ae2a-573a-4dea-8d4e-e40d009b6d21; !- CustomDay2 Schedule:Day Name

Schedule:Week:Daily, ApartmentMidRise OCC_APT_SCH_5,
  fe21ae2a-573a-4dea-8d4e-e40d009b6d21, !- Sunday Schedule:Day Name
  fe21ae2a-573a-4dea-8d4e-e40d009b6d21, !- Monday Schedule:Day Name
  fe21ae2a-573a-4dea-8d4e-e40d009b6d21, !- Tuesday Schedule:Day Name
  fe21ae2a-573a-4dea-8d4e-e40d009b6d21, !- Wednesday Schedule:Day Name
  fe21ae2a-573a-4dea-8d4e-e40d009b6d21, !- Thursday Schedule:Day Name
  fe21ae2a-573a-4dea-8d4e-e40d009b6d21, !- Friday Schedule:Day Name
  fe21ae2a-573a-4dea-8d4e-e40d009b6d21, !- Saturday Schedule:Day Name
  fe21ae2a-573a-4dea-8d4e-e40d009b6d21, !- Holiday Schedule:Day Name
  fe21ae2a-573a-4dea-8d4e-e40d009b6d21, !- SummerDesignDay Schedule:Day Name
  fe21ae2a-573a-4dea-8d4e-e40d009b6d21, !- WinterDesignDay Schedule:Day Name
  fe21ae2a-573a-4dea-8d4e-e40d009b6d21, !- CustomDay1 Schedule:Day Name
  fe21ae2a-573a-4dea-8d4e-e40d009b6d21; !- CustomDay2 Schedule:Day Name

Schedule:Week:Daily, ApartmentMidRise OCC_APT_SCH_6,
  fe21ae2a-573a-4dea-8d4e-e40d009b6d21, !- Sunday Schedule:Day Name
  fe21ae2a-573a-4dea-8d4e-e40d009b6d21, !- Monday Schedule:Day Name
  fe21ae2a-573a-4dea-8d4e-e40d009b6d21, !- Tuesday Schedule:Day Name
  fe21ae2a-573a-4dea-8d4e-e40d009b6d21, !- Wednesday Schedule:Day Name
  fe21ae2a-573a-4dea-8d4e-e40d009b6d21, !- Thursday Schedule:Day Name
  fe21ae2a-573a-4dea-8d4e-e40d009b6d21, !- Friday Schedule:Day Name
  fe21ae2a-573a-4dea-8d4e-e40d009b6d21, !- Saturday Schedule:Day Name
  fe21ae2a-573a-4dea-8d4e-e40d009b6d21, !- Holiday Schedule:Day Name
  fe21ae2a-573a-4dea-8d4e-e40d009b6d21, !- SummerDesignDay Schedule:Day Name
  fe21ae2a-573a-4dea-8d4e-e40d009b6d21, !- WinterDesignDay Schedule:Day Name
  fe21ae2a-573a-4dea-8d4e-e40d009b6d21, !- CustomDay1 Schedule:Day Name
  fe21ae2a-573a-4dea-8d4e-e40d009b6d21; !- CustomDay2 Schedule:Day Name

Schedule:Week:Daily, ApartmentMidRise OCC_APT_SCH_7,
  fe21ae2a-573a-4dea-8d4e-e40d009b6d21, !- Sunday Schedule:Day Name
  fe21ae2a-573a-4dea-8d4e-e40d009b6d21, !- Monday Schedule:Day Name
  fe21ae2a-573a-4dea-8d4e-e40d009b6d21, !- Tuesday Schedule:Day Name
  fe21ae2a-573a-4dea-8d4e-e40d009b6d21, !- Wednesday Schedule:Day Name
  fe21ae2a-573a-4dea-8d4e-e40d009b6d21, !- Thursday Schedule:Day Name
  fe21ae2a-573a-4dea-8d4e-e40d009b6d21, !- Friday Schedule:Day Name
  fe21ae2a-573a-4dea-8d4e-e40d009b6d21, !- Saturday Schedule:Day Name
  fe21ae2a-573a-4dea-8d4e-e40d009b6d21, !- Holiday Schedule:Day Name
  fe21ae2a-573a-4dea-8d4e-e40d009b6d21, !- SummerDesignDay Schedule:Day Name
  fe21ae2a-573a-4dea-8d4e-e40d009b6d21, !- WinterDesignDay Schedule:Day Name
  fe21ae2a-573a-4dea-8d4e-e40d009b6d21, !- CustomDay1 Schedule:Day Name
  fe21ae2a-573a-4dea-8d4e-e40d009b6d21; !- CustomDay2 Schedule:Day Name

Schedule:Week:Daily, ApartmentMidRise OCC_APT_SCH_8,
  fe21ae2a-573a-4dea-8d4e-e40d009b6d21, !- Sunday Schedule:Day Name
  fe21ae2a-573a-4dea-8d4e-e40d009b6d21, !- Monday Schedule:Day Name
  fe21ae2a-573a-4dea-8d4e-e40d009b6d21, !- Tuesday Schedule:Day Name
  fe21ae2a-573a-4dea-8d4e-e40d009b6d21, !- Wednesday Schedule:Day Name
  fe21ae2a-573a-4dea-8d4e-e40d009b6d21, !- Thursday Schedule:Day Name
  fe21ae2a-573a-4dea-8d4e-e40d009b6d21, !- Friday Schedule:Day Name
  fe21ae2a-573a-4dea-8d4e-e40d009b6d21, !- Saturday Schedule:Day Name
  fe21ae2a-573a-4dea-8d4e-e40d009b6d21, !- Holiday Schedule:Day Name
  fe21ae2a-573a-4dea-8d4e-e40d009b6d21, !- SummerDesignDay Schedule:Day Name
  fe21ae2a-573a-4dea-8d4e-e40d009b6d21, !- WinterDesignDay Schedule:Day Name
  fe21ae2a-573a-4dea-8d4e-e40d009b6d21, !- CustomDay1 Schedule:Day Name
  fe21ae2a-573a-4dea-8d4e-e40d009b6d21; !- CustomDay2 Schedule:Day Name

Schedule:Week:Daily, ApartmentMidRise OCC_APT_SCH_9,
  fe21ae2a-573a-4dea-8d4e-e40d009b6d21, !- Sunday Schedule:Day Name
  fe21ae2a-573a-4dea-8d4e-e40d009b6d21, !- Monday Schedule:Day Name
  fe21ae2a-573a-4dea-8d4e-e40d009b6d21, !- Tuesday Schedule:Day Name
  fe21ae2a-573a-4dea-8d4e-e40d009b6d21, !- Wednesday Schedule:Day Name
  fe21ae2a-573a-4dea-8d4e-e40d009b6d21, !- Thursday Schedule:Day Name
  fe21ae2a-573a-4dea-8d4e-e40d009b6d21, !- Friday Schedule:Day Name
  fe21ae2a-573a-4dea-8d4e-e40d009b6d21, !- Saturday Schedule:Day Name
  fe21ae2a-573a-4dea-8d4e-e40d009b6d21, !- Holiday Schedule:Day Name
  fe21ae2a-573a-4dea-8d4e-e40d009b6d21, !- SummerDesignDay Schedule:Day Name
  fe21ae2a-573a-4dea-8d4e-e40d009b6d21, !- WinterDesignDay Schedule:Day Name
  fe21ae2a-573a-4dea-8d4e-e40d009b6d21, !- CustomDay1 Schedule:Day Name
  fe21ae2a-573a-4dea-8d4e-e40d009b6d21; !- CustomDay2 Schedule:Day Name

Schedule:Week:Daily, ApartmentMidRise OCC_APT_SCH_10,
  fe21ae2a-573a-4dea-8d4e-e40d009b6d21, !- Sunday Schedule:Day Name
  fe21ae2a-573a-4dea-8d4e-e40d009b6d21, !- Monday Schedule:Day Name
  fe21ae2a-573a-4dea-8d4e-e40d009b6d21, !- Tuesday Schedule:Day Name
  fe21ae2a-573a-4dea-8d4e-e40d009b6d21, !- Wednesday Schedule:Day Name
  fe21ae2a-573a-4dea-8d4e-e40d009b6d21, !- Thursday Schedule:Day Name
  fe21ae2a-573a-4dea-8d4e-e40d009b6d21, !- Friday Schedule:Day Name
  fe21ae2a-573a-4dea-8d4e-e40d009b6d21, !- Saturday Schedule:Day Name
  fe21ae2a-573a-4dea-8d4e-e40d009b6d21, !- Holiday Schedule:Day Name
  fe21ae2a-573a-4dea-8d4e-e40d009b6d21, !- SummerDesignDay Schedule:Day Name
  fe21ae2a-573a-4dea-8d4e-e40d009b6d21, !- WinterDesignDay Schedule:Day Name
  fe21ae2a-573a-4dea-8d4e-e40d009b6d21, !- CustomDay1 Schedule:Day Name
  fe21ae2a-573a-4dea-8d4e-e40d009b6d21; !- CustomDay2 Schedule:Day Name

Schedule:Week:Daily, ApartmentMidRise OCC_APT_SCH_11,
  fe21ae2a-573a-4dea-8d4e-e40d009b6d21, !- Sunday Schedule:Day Name
  fe21ae2a-573a-4dea-8d4e-e40d009b6d21, !- Monday Schedule:Day Name
  fe21ae2a-573a-4dea-8d4e-e40d009b6d21, !- Tuesday Schedule:Day Name
  fe21ae2a-573a-4dea-8d4e-e40d009b6d21, !- Wednesday Schedule:Day Name
  fe21ae2a-573a-4dea-8d4e-e40d009b6d21, !- Thursday Schedule:Day Name
  fe21ae2a-573a-4dea-8d4e-e40d009b6d21, !- Friday Schedule:Day Name
  fe21ae2a-573a-4dea-8d4e-e40d009b6d21, !- Saturday Schedule:Day Name
  fe21ae2a-573a-4dea-8d4e-e40d009b6d21, !- Holiday Schedule:Day Name
  fe21ae2a-573a-4dea-8d4e-e40d009b6d21, !- SummerDesignDay Schedule:Day Name
  fe21ae2a-573a-4dea-8d4e-e40d009b6d21, !- WinterDesignDay Schedule:Day Name
  fe21ae2a-573a-4dea-8d4e-e40d009b6d21, !- CustomDay1 Schedule:Day Name
  fe21ae2a-573a-4dea-8d4e-e40d009b6d21; !- CustomDay2 Schedule:Day Name

Schedule:Week:Daily, ApartmentMidRise OCC_APT_SCH_12,
  fe21ae2a-573a-4dea-8d4e-e40d009b6d21, !- Sunday Schedule:Day Name
  fe21ae2a-573a-4dea-8d4e-e40d009b6d21, !- Monday Schedule:Day Name
  fe21ae2a-573a-4dea-8d4e-e40d009b6d21, !- Tuesday Schedule:Day Name
  fe21ae2a-573a-4dea-8d4e-e40d009b6d21, !- Wednesday Schedule:Day Name
  fe21ae2a-573a-4dea-8d4e-e40d009b6d21, !- Thursday Schedule:Day Name
  fe21ae2a-573a-4dea-8d4e-e40d009b6d21, !- Friday Schedule:Day Name
  fe21ae2a-573a-4dea-8d4e-e40d009b6d21, !- Saturday Schedule:Day Name
  fe21ae2a-573a-4dea-8d4e-e40d009b6d21, !- Holiday Schedule:Day Name
  fe21ae2a-573a-4dea-8d4e-e40d009b6d21, !- SummerDesignDay Schedule:Day Name
  fe21ae2a-573a-4dea-8d4e-e40d009b6d21, !- WinterDesignDay Schedule:Day Name
  fe21ae2a-573a-4dea-8d4e-e40d009b6d21, !- CustomDay1 Schedule:Day Name
  fe21ae2a-573a-4dea-8d4e-e40d009b6d21; !- CustomDay2 Schedule:Day Name

Schedule:Week:Daily, ApartmentMidRise OCC_APT_SCH_13,
  fe21ae2a-573a-4dea-8d4e-e40d009b6d21, !- Sunday Schedule:Day Name
  fe21ae2a-573a-4dea-8d4e-e40d009b6d21, !- Monday Schedule:Day Name
  fe21ae2a-573a-4dea-8d4e-e40d009b6d21, !- Tuesday Schedule:Day Name
  fe21ae2a-573a-4dea-8d4e-e40d009b6d21, !- Wednesday Schedule:Day Name
  fe21ae2a-573a-4dea-8d4e-e40d009b6d21, !- Thursday Schedule:Day Name
  fe21ae2a-573a-4dea-8d4e-e40d009b6d21, !- Friday Schedule:Day Name
  fe21ae2a-573a-4dea-8d4e-e40d009b6d21, !- Saturday Schedule:Day Name
  fe21ae2a-573a-4dea-8d4e-e40d009b6d21, !- Holiday Schedule:Day Name
  fe21ae2a-573a-4dea-8d4e-e40d009b6d21, !- SummerDesignDay Schedule:Day Name
  fe21ae2a-573a-4dea-8d4e-e40d009b6d21, !- WinterDesignDay Schedule:Day Name
  fe21ae2a-573a-4dea-8d4e-e40d009b6d21, !- CustomDay1 Schedule:Day Name
  fe21ae2a-573a-4dea-8d4e-e40d009b6d21; !- CustomDay2 Schedule:Day Name

Schedule:Week:Daily, ApartmentMidRise OCC_APT_SCH_14,
  fe21ae2a-573a-4dea-8d4e-e40d009b6d21, !- Sunday Schedule:Day Name
  fe21ae2a-573a-4dea-8d4e-e40d009b6d21, !- Monday Schedule:Day Name
  fe21ae2a-573a-4dea-8d4e-e40d009b6d21, !- Tuesday Schedule:Day Name
  fe21ae2a-573a-4dea-8d4e-e40d009b6d21, !- Wednesday Schedule:Day Name
  fe21ae2a-573a-4dea-8d4e-e40d009b6d21, !- Thursday Schedule:Day Name
  fe21ae2a-573a-4dea-8d4e-e40d009b6d21, !- Friday Schedule:Day Name
  fe21ae2a-573a-4dea-8d4e-e40d009b6d21, !- Saturday Schedule:Day Name
  fe21ae2a-573a-4dea-8d4e-e40d009b6d21, !- Holiday Schedule:Day Name
  fe21ae2a-573a-4dea-8d4e-e40d009b6d21, !- SummerDesignDay Schedule:Day Name
  fe21ae2a-573a-4dea-8d4e-e40d009b6d21, !- WinterDesignDay Schedule:Day Name
  fe21ae2a-573a-4dea-8d4e-e40d009b6d21, !- CustomDay1 Schedule:Day Name
  fe21ae2a-573a-4dea-8d4e-e40d009b6d21; !- CustomDay2 Schedule:Day Name

Schedule:Week:Daily, ApartmentMidRise OCC_APT_SCH_15,
  fe21ae2a-573a-4dea-8d4e-e40d009b6d21, !- Sunday Schedule:Day Name
  fe21ae2a-573a-4dea-8d4e-e40d009b6d21, !- Monday Schedule:Day Name
  fe21ae2a-573a-4dea-8d4e-e40d009b6d21, !- Tuesday Schedule:Day Name
  fe21ae2a-573a-4dea-8d4e-e40d009b6d21, !- Wednesday Schedule:Day Name
  fe21ae2a-573a-4dea-8d4e-e40d009b6d21, !- Thursday Schedule:Day Name
  fe21ae2a-573a-4dea-8d4e-e40d009b6d21, !- Friday Schedule:Day Name
  fe21ae2a-573a-4dea-8d4e-e40d009b6d21, !- Saturday Schedule:Day Name
  fe21ae2a-573a-4dea-8d4e-e40d009b6d21, !- Holiday Schedule:Day Name
  fe21ae2a-573a-4dea-8d4e-e40d009b6d21, !- SummerDesignDay Schedule:Day Name
  fe21ae2a-573a-4dea-8d4e-e40d009b6d21, !- WinterDesignDay Schedule:Day Name
  fe21ae2a-573a-4dea-8d4e-e40d009b6d21, !- CustomDay1 Schedule:Day Name
  fe21ae2a-573a-4dea-8d4e-e40d009b6d21; !- CustomDay2 Schedule:Day Name

Schedule:Week:Daily, ApartmentMidRise OCC_APT_SCH_16,
  fe21ae2a-573a-4dea-8d4e-e40d009b6d21, !- Sunday Schedule:Day Name
  fe21ae2a-573a-4dea-8d4e-e40d009b6d21, !- Monday Schedule:Day Name
  fe21ae2a-573a-4dea-8d4e-e40d009b6d21, !- Tuesday Schedule:Day Name
  fe21ae2a-573a-4dea-8d4e-e40d009b6d21, !- Wednesday Schedule:Day Name
  fe21ae2a-573a-4dea-8d4e-e40d009b6d21, !- Thursday Schedule:Day Name
  fe21ae2a-573a-4dea-8d4e-e40d009b6d21, !- Friday Schedule:Day Name
  fe21ae2a-573a-4dea-8d4e-e40d009b6d21, !- Saturday Schedule:Day Name
  fe21ae2a-573a-4dea-8d4e-e40d009b6d21, !- Holiday Schedule:Day Name
  fe21ae2a-573a-4dea-8d4e-e40d009b6d21, !- SummerDesignDay Schedule:Day Name
  fe21ae2a-573a-4dea-8d4e-e40d009b6d21, !- WinterDesignDay Schedule:Day Name
  fe21ae2a-573a-4dea-8d4e-e40d009b6d21, !- CustomDay1 Schedule:Day Name
  fe21ae2a-573a-4dea-8d4e-e40d009b6d21; !- CustomDay2 Schedule:Day Name

Schedule:Week:Daily, ApartmentMidRise OCC_APT_SCH_17,
  fe21ae2a-573a-4dea-8d4e-e40d009b6d21, !- Sunday Schedule:Day Name
  fe21ae2a-573a-4dea-8d4e-e40d009b6d21, !- Monday Schedule:Day Name
  fe21ae2a-573a-4dea-8d4e-e40d009b6d21, !- Tuesday Schedule:Day Name
  fe21ae2a-573a-4dea-8d4e-e40d009b6d21, !- Wednesday Schedule:Day Name
  fe21ae2a-573a-4dea-8d4e-e40d009b6d21, !- Thursday Schedule:Day Name
  fe21ae2a-573a-4dea-8d4e-e40d009b6d21, !- Friday Schedule:Day Name
  fe21ae2a-573a-4dea-8d4e-e40d009b6d21, !- Saturday Schedule:Day Name
  fe21ae2a-573a-4dea-8d4e-e40d009b6d21, !- Holiday Schedule:Day Name
  fe21ae2a-573a-4dea-8d4e-e40d009b6d21, !- SummerDesignDay Schedule:Day Name
  fe21ae2a-573a-4dea-8d4e-e40d009b6d21, !- WinterDesignDay Schedule:Day Name
  fe21ae2a-573a-4dea-8d4e-e40d009b6d21, !- CustomDay1 Schedule:Day Name
  fe21ae2a-573a-4dea-8d4e-e40d009b6d21; !- CustomDay2 Schedule:Day Name

Schedule:Week:Daily, ApartmentMidRise OCC_APT_SCH_18,
  fe21ae2a-573a-4dea-8d4e-e40d009b6d21, !- Sunday Schedule:Day Name
  fe21ae2a-573a-4dea-8d4e-e40d009b6d21, !- Monday Schedule:Day Name
  fe21ae2a-573a-4dea-8d4e-e40d009b6d21, !- Tuesday Schedule:Day Name
  fe21ae2a-573a-4dea-8d4e-e40d009b6d21, !- Wednesday Schedule:Day Name
  fe21ae2a-573a-4dea-8d4e-e40d009b6d21, !- Thursday Schedule:Day Name
  fe21ae2a-573a-4dea-8d4e-e40d009b6d21, !- Friday Schedule:Day Name
  fe21ae2a-573a-4dea-8d4e-e40d009b6d21, !- Saturday Schedule:Day Name
  fe21ae2a-573a-4dea-8d4e-e40d009b6d21, !- Holiday Schedule:Day Name
  fe21ae2a-573a-4dea-8d4e-e40d009b6d21, !- SummerDesignDay Schedule:Day Name
  fe21ae2a-573a-4dea-8d4e-e40d009b6d21, !- WinterDesignDay Schedule:Day Name
  fe21ae2a-573a-4dea-8d4e-e40d009b6d21, !- CustomDay1 Schedule:Day Name
  fe21ae2a-573a-4dea-8d4e-e40d009b6d21; !- CustomDay2 Schedule:Day Name

Schedule:Week:Daily, ApartmentMidRise OCC_APT_SCH_19,
  fe21ae2a-573a-4dea-8d4e-e40d009b6d21, !- Sunday Schedule:Day Name
  fe21ae2a-573a-4dea-8d4e-e40d009b6d21, !- Monday Schedule:Day Name
  fe21ae2a-573a-4dea-8d4e-e40d009b6d21, !- Tuesday Schedule:Day Name
  fe21ae2a-573a-4dea-8d4e-e40d009b6d21, !- Wednesday Schedule:Day Name
  fe21ae2a-573a-4dea-8d4e-e40d009b6d21, !- Thursday Schedule:Day Name
  fe21ae2a-573a-4dea-8d4e-e40d009b6d21, !- Friday Schedule:Day Name
  fe21ae2a-573a-4dea-8d4e-e40d009b6d21, !- Saturday Schedule:Day Name
  fe21ae2a-573a-4dea-8d4e-e40d009b6d21, !- Holiday Schedule:Day Name
  fe21ae2a-573a-4dea-8d4e-e40d009b6d21, !- SummerDesignDay Schedule:Day Name
  fe21ae2a-573a-4dea-8d4e-e40d009b6d21, !- WinterDesignDay Schedule:Day Name
  fe21ae2a-573a-4dea-8d4e-e40d009b6d21, !- CustomDay1 Schedule:Day Name
  fe21ae2a-573a-4dea-8d4e-e40d009b6d21; !- CustomDay2 Schedule:Day Name

Schedule:Week:Daily, ApartmentMidRise OCC_APT_SCH_20,
  fe21ae2a-573a-4dea-8d4e-e40d009b6d21, !- Sunday Schedule:Day Name
  fe21ae2a-573a-4dea-8d4e-e40d009b6d21, !- Monday Schedule:Day Name
  fe21ae2a-573a-4dea-8d4e-e40d009b6d21, !- Tuesday Schedule:Day Name
  fe21ae2a-573a-4dea-8d4e-e40d009b6d21, !- Wednesday Schedule:Day Name
  fe21ae2a-573a-4dea-8d4e-e40d009b6d21, !- Thursday Schedule:Day Name
  fe21ae2a-573a-4dea-8d4e-e40d009b6d21, !- Friday Schedule:Day Name
  fe21ae2a-573a-4dea-8d4e-e40d009b6d21, !- Saturday Schedule:Day Name
  fe21ae2a-573a-4dea-8d4e-e40d009b6d21, !- Holiday Schedule:Day Name
  fe21ae2a-573a-4dea-8d4e-e40d009b6d21, !- SummerDesignDay Schedule:Day Name
  fe21ae2a-573a-4dea-8d4e-e40d009b6d21, !- WinterDesignDay Schedule:Day Name
  fe21ae2a-573a-4dea-8d4e-e40d009b6d21, !- CustomDay1 Schedule:Day Name
  fe21ae2a-573a-4dea-8d4e-e40d009b6d21; !- CustomDay2 Schedule:Day Name

Schedule:Week:Daily, ApartmentMidRise OCC_APT_SCH_21,
  fe21ae2a-573a-4dea-8d4e-e40d009b6d21, !- Sunday Schedule:Day Name
  fe21ae2a-573a-4dea-8d4e-e40d009b6d21, !- Monday Schedule:Day Name
  fe21ae2a-573a-4dea-8d4e-e40d009b6d21, !- Tuesday Schedule:Day Name
  fe21ae2a-573a-4dea-8d4e-e40d009b6d21, !- Wednesday Schedule:Day Name
  fe21ae2a-573a-4dea-8d4e-e40d009b6d21, !- Thursday Schedule:Day Name
  fe21ae2a-573a-4dea-8d4e-e40d009b6d21, !- Friday Schedule:Day Name
  fe21ae2a-573a-4dea-8d4e-e40d009b6d21, !- Saturday Schedule:Day Name
  fe21ae2a-573a-4dea-8d4e-e40d009b6d21, !- Holiday Schedule:Day Name
  fe21ae2a-573a-4dea-8d4e-e40d009b6d21, !- SummerDesignDay Schedule:Day Name
  fe21ae2a-573a-4dea-8d4e-e40d009b6d21, !- WinterDesignDay Schedule:Day Name
  fe21ae2a-573a-4dea-8d4e-e40d009b6d21, !- CustomDay1 Schedule:Day Name
  fe21ae2a-573a-4dea-8d4e-e40d009b6d21; !- CustomDay2 Schedule:Day Name

Schedule:Week:Daily, ApartmentMidRise OCC_APT_SCH_22,
  fe21ae2a-573a-4dea-8d4e-e40d009b6d21, !- Sunday Schedule:Day Name
  fe21ae2a-573a-4dea-8d4e-e40d009b6d21, !- Monday Schedule:Day Name
  fe21ae2a-573a-4dea-8d4e-e40d009b6d21, !- Tuesday Schedule:Day Name
  fe21ae2a-573a-4dea-8d4e-e40d009b6d21, !- Wednesday Schedule:Day Name
  fe21ae2a-573a-4dea-8d4e-e40d009b6d21, !- Thursday Schedule:Day Name
  fe21ae2a-573a-4dea-8d4e-e40d009b6d21, !- Friday Schedule:Day Name
  fe21ae2a-573a-4dea-8d4e-e40d009b6d21, !- Saturday Schedule:Day Name
  fe21ae2a-573a-4dea-8d4e-e40d009b6d21, !- Holiday Schedule:Day Name
  fe21ae2a-573a-4dea-8d4e-e40d009b6d21, !- SummerDesignDay Schedule:Day Name
  fe21ae2a-573a-4dea-8d4e-e40d009b6d21, !- WinterDesignDay Schedule:Day Name
  fe21ae2a-573a-4dea-8d4e-e40d009b6d21, !- CustomDay1 Schedule:Day Name
  fe21ae2a-573a-4dea-8d4e-e40d009b6d21; !- CustomDay2 Schedule:Day Name

Schedule:Week:Daily, ApartmentMidRise OCC_APT_SCH_23,
  fe21ae2a-573a-4dea-8d4e-e40d009b6d21, !- Sunday Schedule:Day Name
  fe21ae2a-573a-4dea-8d4e-e40d009b6d21, !- Monday Schedule:Day Name
  fe21ae2a-573a-4dea-8d4e-e40d009b6d21, !- Tuesday Schedule:Day Name
  fe21ae2a-573a-4dea-8d4e-e40d009b6d21, !- Wednesday Schedule:Day Name
  fe21ae2a-573a-4dea-8d4e-e40d009b6d21, !- Thursday Schedule:Day Name
  fe21ae2a-573a-4dea-8d4e-e40d009b6d21, !- Friday Schedule:Day Name
  fe21ae2a-573a-4dea-8d4e-e40d009b6d21, !- Saturday Schedule:Day Name
  fe21ae2a-573a-4dea-8d4e-e40d009b6d21, !- Holiday Schedule:Day Name
  fe21ae2a-573a-4dea-8d4e-e40d009b6d21, !- SummerDesignDay Schedule:Day Name
  fe21ae2a-573a-4dea-8d4e-e40d009b6d21, !- WinterDesignDay Schedule:Day Name
  fe21ae2a-573a-4dea-8d4e-e40d009b6d21, !- CustomDay1 Schedule:Day Name
  fe21ae2a-573a-4dea-8d4e-e40d009b6d21; !- CustomDay2 Schedule:Day Name

Schedule:Week:Daily, ApartmentMidRise OCC_APT_SCH_24,
  fe21ae2a-573a-4dea-8d4e-e40d009b6d21, !- Sunday Schedule:Day Name
  fe21ae2a-573a-4dea-8d4e-e40d009b6d21, !- Monday Schedule:Day Name
  fe21ae2a-573a-4dea-8d4e-e40d009b6d21, !- Tuesday Schedule:Day Name
  fe21ae2a-573a-4dea-8d4e-e40d009b6d21, !- Wednesday Schedule:Day Name
  fe21ae2a-573a-4dea-8d4e-e40d009b6d21, !- Thursday Schedule:Day Name
  fe21ae2a-573a-4dea-8d4e-e40d009b6d21, !- Friday Schedule:Day Name
  fe21ae2a-573a-4dea-8d4e-e40d009b6d21, !- Saturday Schedule:Day Name
  fe21ae2a-573a-4dea-8d4e-e40d009b6d21, !- Holiday Schedule:Day Name
  fe21ae2a-573a-4dea-8d4e-e40d009b6d21, !- SummerDesignDay Schedule:Day Name
  fe21ae2a-573a-4dea-8d4e-e40d009b6d21, !- WinterDesignDay Schedule:Day Name
  fe21ae2a-573a-4dea-8d4e-e40d009b6d21, !- CustomDay1 Schedule:Day Name
  fe21ae2a-573a-4dea-8d4e-e40d009b6d21; !- CustomDay2 Schedule:Day Name

Schedule:Week:Daily, ApartmentMidRise OCC_APT_SCH_25,
  fe21ae2a-573a-4dea-8d4e-e40d009b6d21, !- Sunday Schedule:Day Name
  fe21ae2a-573a-4dea-8d4e-e40d009b6d21, !- Monday Schedule:Day Name
  fe21ae2a-573a-4dea-8d4e-e40d009b6d21, !- Tuesday Schedule:Day Name
  fe21ae2a-573a-4dea-8d4e-e40d009b6d21, !- Wednesday Schedule:Day Name
  fe21ae2a-573a-4dea-8d4e-e40d009b6d21, !- Thursday Schedule:Day Name
  fe21ae2a-573a-4dea-8d4e-e40d009b6d21, !- Friday Schedule:Day Name
  fe21ae2a-573a-4dea-8d4e-e40d009b6d21, !- Saturday Schedule:Day Name
  fe21ae2a-573a-4dea-8d4e-e40d009b6d21, !- Holiday Schedule:Day Name
  fe21ae2a-573a-4dea-8d4e-e40d009b6d21, !- SummerDesignDay Schedule:Day Name
  fe21ae2a-573a-4dea-8d4e-e40d009b6d21, !- WinterDesignDay Schedule:Day Name
  fe21ae2a-573a-4dea-8d4e-e40d009b6d21, !- CustomDay1 Schedule:Day Name
  fe21ae2a-573a-4dea-8d4e-e40d009b6d21; !- CustomDay2 Schedule:Day Name

Schedule:Week:Daily, ApartmentMidRise OCC_APT_SCH_26,
  fe21ae2a-573a-4dea-8d4e-e40d009b6d21, !- Sunday Schedule:Day Name
  fe21ae2a-573a-4dea-8d4e-e40d009b6d21, !- Monday Schedule:Day Name
  fe21ae2a-573a-4dea-8d4e-e40d009b6d21, !- Tuesday Schedule:Day Name
  fe21ae2a-573a-4dea-8d4e-e40d009b6d21, !- Wednesday Schedule:Day Name
  fe21ae2a-573a-4dea-8d4e-e40d009b6d21, !- Thursday Schedule:Day Name
  fe21ae2a-573a-4dea-8d4e-e40d009b6d21, !- Friday Schedule:Day Name
  fe21ae2a-573a-4dea-8d4e-e40d009b6d21, !- Saturday Schedule:Day Name
  fe21ae2a-573a-4dea-8d4e-e40d009b6d21, !- Holiday Schedule:Day Name
  fe21ae2a-573a-4dea-8d4e-e40d009b6d21, !- SummerDesignDay Schedule:Day Name
  fe21ae2a-573a-4dea-8d4e-e40d009b6d21, !- WinterDesignDay Schedule:Day Name
  fe21ae2a-573a-4dea-8d4e-e40d009b6d21, !- CustomDay1 Schedule:Day Name
  fe21ae2a-573a-4dea-8d4e-e40d009b6d21; !- CustomDay2 Schedule:Day Name

Schedule:Week:Daily, ApartmentMidRise OCC_APT_SCH_27,
  fe21ae2a-573a-4dea-8d4e-e40d009b6d21, !- Sunday Schedule:Day Name
  fe21ae2a-573a-4dea-8d4e-e40d009b6d21, !- Monday Schedule:Day Name
  fe21ae2a-573a-4dea-8d4e-e40d009b6d21, !- Tuesday Schedule:Day Name
  fe21ae2a-573a-4dea-8d4e-e40d009b6d21, !- Wednesday Schedule:Day Name
  fe21ae2a-573a-4dea-8d4e-e40d009b6d21, !- Thursday Schedule:Day Name
  fe21ae2a-573a-4dea-8d4e-e40d009b6d21, !- Friday Schedule:Day Name
  fe21ae2a-573a-4dea-8d4e-e40d009b6d21, !- Saturday Schedule:Day Name
  fe21ae2a-573a-4dea-8d4e-e40d009b6d21, !- Holiday Schedule:Day Name
  fe21ae2a-573a-4dea-8d4e-e40d009b6d21, !- SummerDesignDay Schedule:Day Name
  fe21ae2a-573a-4dea-8d4e-e40d009b6d21, !- WinterDesignDay Schedule:Day Name
  fe21ae2a-573a-4dea-8d4e-e40d009b6d21, !- CustomDay1 Schedule:Day Name
  fe21ae2a-573a-4dea-8d4e-e40d009b6d21; !- CustomDay2 Schedule:Day Name

Schedule:Week:Daily, ApartmentMidRise OCC_APT_SCH_28,
  fe21ae2a-573a-4dea-8d4e-e40d009b6d21, !- Sunday Schedule:Day Name
  fe21ae2a-573a-4dea-8d4e-e40d009b6d21, !- Monday Schedule:Day Name
  fe21ae2a-573a-4dea-8d4e-e40d009b6d21, !- Tuesday Schedule:Day Name
  fe21ae2a-573a-4dea-8d4e-e40d009b6d21, !- Wednesday Schedule:Day Name
  fe21ae2a-573a-4dea-8d4e-e40d009b6d21, !- Thursday Schedule:Day Name
  fe21ae2a-573a-4dea-8d4e-e40d009b6d21, !- Friday Schedule:Day Name
  fe21ae2a-573a-4dea-8d4e-e40d009b6d21, !- Saturday Schedule:Day Name
  fe21ae2a-573a-4dea-8d4e-e40d009b6d21, !- Holiday Schedule:Day Name
  fe21ae2a-573a-4dea-8d4e-e40d009b6d21, !- SummerDesignDay Schedule:Day Name
  fe21ae2a-573a-4dea-8d4e-e40d009b6d21, !- WinterDesignDay Schedule:Day Name
  fe21ae2a-573a-4dea-8d4e-e40d009b6d21, !- CustomDay1 Schedule:Day Name
  fe21ae2a-573a-4dea-8d4e-e40d009b6d21; !- CustomDay2 Schedule:Day Name

Schedule:Week:Daily, ApartmentMidRise OCC_APT_SCH_29,
  fe21ae2a-573a-4dea-8d4e-e40d009b6d21, !- Sunday Schedule:Day Name
  fe21ae2a-573a-4dea-8d4e-e40d009b6d21, !- Monday Schedule:Day Name
  fe21ae2a-573a-4dea-8d4e-e40d009b6d21, !- Tuesday Schedule:Day Name
  fe21ae2a-573a-4dea-8d4e-e40d009b6d21, !- Wednesday Schedule:Day Name
  fe21ae2a-573a-4dea-8d4e-e40d009b6d21, !- Thursday Schedule:Day Name
  fe21ae2a-573a-4dea-8d4e-e40d009b6d21, !- Friday Schedule:Day Name
  fe21ae2a-573a-4dea-8d4e-e40d009b6d21, !- Saturday Schedule:Day Name
  fe21ae2a-573a-4dea-8d4e-e40d009b6d21, !- Holiday Schedule:Day Name
  fe21ae2a-573a-4dea-8d4e-e40d009b6d21, !- SummerDesignDay Schedule:Day Name
  fe21ae2a-573a-4dea-8d4e-e40d009b6d21, !- WinterDesignDay Schedule:Day Name
  fe21ae2a-573a-4dea-8d4e-e40d009b6d21, !- CustomDay1 Schedule:Day Name
  fe21ae2a-573a-4dea-8d4e-e40d009b6d21; !- CustomDay2 Schedule:Day Name

Schedule:Week:Daily, ApartmentMidRise OCC_APT_SCH_30,
  fe21ae2a-573a-4dea-8d4e-e40d009b6d21, !- Sunday Schedule:Day Name
  fe21ae2a-573a-4dea-8d4e-e40d009b6d21, !- Monday Schedule:Day Name
  fe21ae2a-573a-4dea-8d4e-e40d009b6d21, !- Tuesday Schedule:Day Name
  fe21ae2a-573a-4dea-8d4e-e40d009b6d21, !- Wednesday Schedule:Day Name
  fe21ae2a-573a-4dea-8d4e-e40d009b6d21, !- Thursday Schedule:Day Name
  fe21ae2a-573a-4dea-8d4e-e40d009b6d21, !- Friday Schedule:Day Name
  fe21ae2a-573a-4dea-8d4e-e40d009b6d21, !- Saturday Schedule:Day Name
  fe21ae2a-573a-4dea-8d4e-e40d009b6d21, !- Holiday Schedule:Day Name
  fe21ae2a-573a-4dea-8d4e-e40d009b6d21, !- SummerDesignDay Schedule:Day Name
  fe21ae2a-573a-4dea-8d4e-e40d009b6d21, !- WinterDesignDay Schedule:Day Name
  fe21ae2a-573a-4dea-8d4e-e40d009b6d21, !- CustomDay1 Schedule:Day Name
  fe21ae2a-573a-4dea-8d4e-e40d009b6d21; !- CustomDay2 Schedule:Day Name

Schedule:Week:Daily, ApartmentMidRise OCC_APT_SCH_31,
  fe21ae2a-573a-4dea-8d4e-e40d009b6d21, !- Sunday Schedule:Day Name
  fe21ae2a-573a-4dea-8d4e-e40d009b6d21, !- Monday Schedule:Day Name
  fe21ae2a-573a-4dea-8d4e-e40d009b6d21, !- Tuesday Schedule:Day Name
  fe21ae2a-573a-4dea-8d4e-e40d009b6d21, !- Wednesday Schedule:Day Name
  fe21ae2a-573a-4dea-8d4e-e40d009b6d21, !- Thursday Schedule:Day Name
  fe21ae2a-573a-4dea-8d4e-e40d009b6d21, !- Friday Schedule:Day Name
  fe21ae2a-573a-4dea-8d4e-e40d009b6d21, !- Saturday Schedule:Day Name
  fe21ae2a-573a-4dea-8d4e-e40d009b6d21, !- Holiday Schedule:Day Name
  fe21ae2a-573a-4dea-8d4e-e40d009b6d21, !- SummerDesignDay Schedule:Day Name
  fe21ae2a-573a-4dea-8d4e-e40d009b6d21, !- WinterDesignDay Schedule:Day Name
  fe21ae2a-573a-4dea-8d4e-e40d009b6d21, !- CustomDay1 Schedule:Day Name
  fe21ae2a-573a-4dea-8d4e-e40d009b6d21; !- CustomDay2 Schedule:Day Name

Schedule:Week:Daily, ApartmentMidRise OCC_APT_SCH_32,
  fe21ae2a-573a-4dea-8d4e-e40d009b6d21, !- Sunday Schedule:Day Name
  fe21ae2a-573a-4dea-8d4e-e40d009b6d21, !- Monday Schedule:Day Name
  fe21ae2a-573a-4dea-8d4e-e40d009b6d21, !- Tuesday Schedule:Day Name
  fe21ae2a-573a-4dea-8d4e-e40d009b6d21, !- Wednesday Schedule:Day Name
  fe21ae2a-573a-4dea-8d4e-e40d009b6d21, !- Thursday Schedule:Day Name
  fe21ae2a-573a-4dea-8d4e-e40d009b6d21, !- Friday Schedule:Day Name
  fe21ae2a-573a-4dea-8d4e-e40d009b6d21, !- Saturday Schedule:Day Name
  fe21ae2a-573a-4dea-8d4e-e40d009b6d21, !- Holiday Schedule:Day Name
  fe21ae2a-573a-4dea-8d4e-e40d009b6d21, !- SummerDesignDay Schedule:Day Name
  fe21ae2a-573a-4dea-8d4e-e40d009b6d21, !- WinterDesignDay Schedule:Day Name
  fe21ae2a-573a-4dea-8d4e-e40d009b6d21, !- CustomDay1 Schedule:Day Name
  fe21ae2a-573a-4dea-8d4e-e40d009b6d21; !- CustomDay2 Schedule:Day Name

Schedule:Week:Daily, ApartmentMidRise OCC_APT_SCH_33,
  fe21ae2a-573a-4dea-8d4e-e40d009b6d21, !- Sunday Schedule:Day Name
  fe21ae2a-573a-4dea-8d4e-e40d009b6d21, !- Monday Schedule:Day Name
  fe21ae2a-573a-4dea-8d4e-e40d009b6d21, !- Tuesday Schedule:Day Name
  fe21ae2a-573a-4dea-8d4e-e40d009b6d21, !- Wednesday Schedule:Day Name
  fe21ae2a-573a-4dea-8d4e-e40d009b6d21, !- Thursday Schedule:Day Name
  fe21ae2a-573a-4dea-8d4e-e40d009b6d21, !- Friday Schedule:Day Name
  fe21ae2a-573a-4dea-8d4e-e40d009b6d21, !- Saturday Schedule:Day Name
  fe21ae2a-573a-4dea-8d4e-e40d009b6d21, !- Holiday Schedule:Day Name
  fe21ae2a-573a-4dea-8d4e-e40d009b6d21, !- SummerDesignDay Schedule:Day Name
  fe21ae2a-573a-4dea-8d4e-e40d009b6d21, !- WinterDesignDay Schedule:Day Name
  fe21ae2a-573a-4dea-8d4e-e40d009b6d21, !- CustomDay1 Schedule:Day Name
  fe21ae2a-573a-4dea-8d4e-e40d009b6d21; !- CustomDay2 Schedule:Day Name

Schedule:Week:Daily, ApartmentMidRise OCC_APT_SCH_34,
  fe21ae2a-573a-4dea-8d4e-e40d009b6d21, !- Sunday Schedule:Day Name
  fe21ae2a-573a-4dea-8d4e-e40d009b6d21, !- Monday Schedule:Day Name
  fe21ae2a-573a-4dea-8d4e-e40d009b6d21, !- Tuesday Schedule:Day Name
  fe21ae2a-573a-4dea-8d4e-e40d009b6d21, !- Wednesday Schedule:Day Name
  fe21ae2a-573a-4dea-8d4e-e40d009b6d21, !- Thursday Schedule:Day Name
  fe21ae2a-573a-4dea-8d4e-e40d009b6d21, !- Friday Schedule:Day Name
  fe21ae2a-573a-4dea-8d4e-e40d009b6d21, !- Saturday Schedule:Day Name
  fe21ae2a-573a-4dea-8d4e-e40d009b6d21, !- Holiday Schedule:Day Name
  fe21ae2a-573a-4dea-8d4e-e40d009b6d21, !- SummerDesignDay Schedule:Day Name
  fe21ae2a-573a-4dea-8d4e-e40d009b6d21, !- WinterDesignDay Schedule:Day Name
  fe21ae2a-573a-4dea-8d4e-e40d009b6d21, !- CustomDay1 Schedule:Day Name
  fe21ae2a-573a-4dea-8d4e-e40d009b6d21; !- CustomDay2 Schedule:Day Name

Schedule:Week:Daily, ApartmentMidRise OCC_APT_SCH_35,
  fe21ae2a-573a-4dea-8d4e-e40d009b6d21, !- Sunday Schedule:Day Name
  fe21ae2a-573a-4dea-8d4e-e40d009b6d21, !- Monday Schedule:Day Name
  fe21ae2a-573a-4dea-8d4e-e40d009b6d21, !- Tuesday Schedule:Day Name
  fe21ae2a-573a-4dea-8d4e-e40d009b6d21, !- Wednesday Schedule:Day Name
  fe21ae2a-573a-4dea-8d4e-e40d009b6d21, !- Thursday Schedule:Day Name
  fe21ae2a-573a-4dea-8d4e-e40d009b6d21, !- Friday Schedule:Day Name
  fe21ae2a-573a-4dea-8d4e-e40d009b6d21, !- Saturday Schedule:Day Name
  fe21ae2a-573a-4dea-8d4e-e40d009b6d21, !- Holiday Schedule:Day Name
  fe21ae2a-573a-4dea-8d4e-e40d009b6d21, !- SummerDesignDay Schedule:Day Name
  fe21ae2a-573a-4dea-8d4e-e40d009b6d21, !- WinterDesignDay Schedule:Day Name
  fe21ae2a-573a-4dea-8d4e-e40d009b6d21, !- CustomDay1 Schedule:Day Name
  fe21ae2a-573a-4dea-8d4e-e40d009b6d21; !- CustomDay2 Schedule:Day Name

Schedule:Week:Daily, ApartmentMidRise OCC_APT_SCH_36,
  fe21ae2a-573a-4dea-8d4e-e40d009b6d21, !- Sunday Schedule:Day Name
  fe21ae2a-573a-4dea-8d4e-e40d009b6d21, !- Monday Schedule:Day Name
  fe21ae2a-573a-4dea-8d4e-e40d009b6d21, !- Tuesday Schedule:Day Name
  fe21ae2a-573a-4dea-8d4e-e40d009b6d21, !- Wednesday Schedule:Day Name
  fe21ae2a-573a-4dea-8d4e-e40d009b6d21, !- Thursday Schedule:Day Name
  fe21ae2a-573a-4dea-8d4e-e40d009b6d21, !- Friday Schedule:Day Name
  fe21ae2a-573a-4dea-8d4e-e40d009b6d21, !- Saturday Schedule:Day Name
  fe21ae2a-573a-4dea-8d4e-e40d009b6d21, !- Holiday Schedule:Day Name
  fe21ae2a-573a-4dea-8d4e-e40d009b6d21, !- SummerDesignDay Schedule:Day Name
  fe21ae2a-573a-4dea-8d4e-e40d009b6d21, !- WinterDesignDay Schedule:Day Name
  fe21ae2a-573a-4dea-8d4e-e40d009b6d21, !- CustomDay1 Schedule:Day Name
  fe21ae2a-573a-4dea-8d4e-e40d009b6d21; !- CustomDay2 Schedule:Day Name

Schedule:Week:Daily, ApartmentMidRise OCC_APT_SCH_37,
  fe21ae2a-573a-4dea-8d4e-e40d009b6d21, !- Sunday Schedule:Day Name
  fe21ae2a-573a-4dea-8d4e-e40d009b6d21, !- Monday Schedule:Day Name
  fe21ae2a-573a-4dea-8d4e-e40d009b6d21, !- Tuesday Schedule:Day Name
  fe21ae2a-573a-4dea-8d4e-e40d009b6d21, !- Wednesday Schedule:Day Name
  fe21ae2a-573a-4dea-8d4e-e40d009b6d21, !- Thursday Schedule:Day Name
  fe21ae2a-573a-4dea-8d4e-e40d009b6d21, !- Friday Schedule:Day Name
  fe21ae2a-573a-4dea-8d4e-e40d009b6d21, !- Saturday Schedule:Day Name
  fe21ae2a-573a-4dea-8d4e-e40d009b6d21, !- Holiday Schedule:Day Name
  fe21ae2a-573a-4dea-8d4e-e40d009b6d21, !- SummerDesignDay Schedule:Day Name
  fe21ae2a-573a-4dea-8d4e-e40d009b6d21, !- WinterDesignDay Schedule:Day Name
  fe21ae2a-573a-4dea-8d4e-e40d009b6d21, !- CustomDay1 Schedule:Day Name
  fe21ae2a-573a-4dea-8d4e-e40d009b6d21; !- CustomDay2 Schedule:Day Name

Schedule:Week:Daily, ApartmentMidRise OCC_APT_SCH_38,
  fe21ae2a-573a-4dea-8d4e-e40d009b6d21, !- Sunday Schedule:Day Name
  fe21ae2a-573a-4dea-8d4e-e40d009b6d21, !- Monday Schedule:Day Name
  fe21ae2a-573a-4dea-8d4e-e40d009b6d21, !- Tuesday Schedule:Day Name
  fe21ae2a-573a-4dea-8d4e-e40d009b6d21, !- Wednesday Schedule:Day Name
  fe21ae2a-573a-4dea-8d4e-e40d009b6d21, !- Thursday Schedule:Day Name
  fe21ae2a-573a-4dea-8d4e-e40d009b6d21, !- Friday Schedule:Day Name
  fe21ae2a-573a-4dea-8d4e-e40d009b6d21, !- Saturday Schedule:Day Name
  fe21ae2a-573a-4dea-8d4e-e40d009b6d21, !- Holiday Schedule:Day Name
  fe21ae2a-573a-4dea-8d4e-e40d009b6d21, !- SummerDesignDay Schedule:Day Name
  fe21ae2a-573a-4dea-8d4e-e40d009b6d21, !- WinterDesignDay Schedule:Day Name
  fe21ae2a-573a-4dea-8d4e-e40d009b6d21, !- CustomDay1 Schedule:Day Name
  fe21ae2a-573a-4dea-8d4e-e40d009b6d21; !- CustomDay2 Schedule:Day Name

Schedule:Week:Daily, ApartmentMidRise OCC_APT_SCH_39,
  fe21ae2a-573a-4dea-8d4e-e40d009b6d21, !- Sunday Schedule:Day Name
  fe21ae2a-573a-4dea-8d4e-e40d009b6d21, !- Monday Schedule:Day Name
  fe21ae2a-573a-4dea-8d4e-e40d009b6d21, !- Tuesday Schedule:Day Name
  fe21ae2a-573a-4dea-8d4e-e40d009b6d21, !- Wednesday Schedule:Day Name
  fe21ae2a-573a-4dea-8d4e-e40d009b6d21, !- Thursday Schedule:Day Name
  fe21ae2a-573a-4dea-8d4e-e40d009b6d21, !- Friday Schedule:Day Name
  fe21ae2a-573a-4dea-8d4e-e40d009b6d21, !- Saturday Schedule:Day Name
  fe21ae2a-573a-4dea-8d4e-e40d009b6d21, !- Holiday Schedule:Day Name
  fe21ae2a-573a-4dea-8d4e-e40d009b6d21, !- SummerDesignDay Schedule:Day Name
  fe21ae2a-573a-4dea-8d4e-e40d009b6d21, !- WinterDesignDay Schedule:Day Name
  fe21ae2a-573a-4dea-8d4e-e40d009b6d21, !- CustomDay1 Schedule:Day Name
  fe21ae2a-573a-4dea-8d4e-e40d009b6d21; !- CustomDay2 Schedule:Day Name

Schedule:Week:Daily, ApartmentMidRise OCC_APT_SCH_40,
  fe21ae2a-573a-4dea-8d4e-e40d009b6d21, !- Sunday Schedule:Day Name
  fe21ae2a-573a-4dea-8d4e-e40d009b6d21, !- Monday Schedule:Day Name
  fe21ae2a-573a-4dea-8d4e-e40d009b6d21, !- Tuesday Schedule:Day Name
  fe21ae2a-573a-4dea-8d4e-e40d009b6d21, !- Wednesday Schedule:Day Name
  fe21ae2a-573a-4dea-8d4e-e40d009b6d21, !- Thursday Schedule:Day Name
  fe21ae2a-573a-4dea-8d4e-e40d009b6d21, !- Friday Schedule:Day Name
  fe21ae2a-573a-4dea-8d4e-e40d009b6d21, !- Saturday Schedule:Day Name
  fe21ae2a-573a-4dea-8d4e-e40d009b6d21, !- Holiday Schedule:Day Name
  fe21ae2a-573a-4dea-8d4e-e40d009b6d21, !- SummerDesignDay Schedule:Day Name
  fe21ae2a-573a-4dea-8d4e-e40d009b6d21, !- WinterDesignDay Schedule:Day Name
  fe21ae2a-573a-4dea-8d4e-e40d009b6d21, !- CustomDay1 Schedule:Day Name
  fe21ae2a-573a-4dea-8d4e-e40d009b6d21; !- CustomDay2 Schedule:Day Name

Schedule:Week:Daily, ApartmentMidRise OCC_APT_SCH_41,
  fe21ae2a-573a-4dea-8d4e-e40d009b6d21, !- Sunday Schedule:Day Name
  fe21ae2a-573a-4dea-8d4e-e40d009b6d21, !- Monday Schedule:Day Name
  fe21ae2a-573a-4dea-8d4e-e40d009b6d21, !- Tuesday Schedule:Day Name
  fe21ae2a-573a-4dea-8d4e-e40d009b6d21, !- Wednesday Schedule:Day Name
  fe21ae2a-573a-4dea-8d4e-e40d009b6d21, !- Thursday Schedule:Day Name
  fe21ae2a-573a-4dea-8d4e-e40d009b6d21, !- Friday Schedule:Day Name
  fe21ae2a-573a-4dea-8d4e-e40d009b6d21, !- Saturday Schedule:Day Name
  fe21ae2a-573a-4dea-8d4e-e40d009b6d21, !- Holiday Schedule:Day Name
  fe21ae2a-573a-4dea-8d4e-e40d009b6d21, !- SummerDesignDay Schedule:Day Name
  fe21ae2a-573a-4dea-8d4e-e40d009b6d21, !- WinterDesignDay Schedule:Day Name
  fe21ae2a-573a-4dea-8d4e-e40d009b6d21, !- CustomDay1 Schedule:Day Name
  fe21ae2a-573a-4dea-8d4e-e40d009b6d21; !- CustomDay2 Schedule:Day Name

Schedule:Week:Daily, ApartmentMidRise OCC_APT_SCH_42,
  fe21ae2a-573a-4dea-8d4e-e40d009b6d21, !- Sunday Schedule:Day Name
  fe21ae2a-573a-4dea-8d4e-e40d009b6d21, !- Monday Schedule:Day Name
  fe21ae2a-573a-4dea-8d4e-e40d009b6d21, !- Tuesday Schedule:Day Name
  fe21ae2a-573a-4dea-8d4e-e40d009b6d21, !- Wednesday Schedule:Day Name
  fe21ae2a-573a-4dea-8d4e-e40d009b6d21, !- Thursday Schedule:Day Name
  fe21ae2a-573a-4dea-8d4e-e40d009b6d21, !- Friday Schedule:Day Name
  fe21ae2a-573a-4dea-8d4e-e40d009b6d21, !- Saturday Schedule:Day Name
  fe21ae2a-573a-4dea-8d4e-e40d009b6d21, !- Holiday Schedule:Day Name
  fe21ae2a-573a-4dea-8d4e-e40d009b6d21, !- SummerDesignDay Schedule:Day Name
  fe21ae2a-573a-4dea-8d4e-e40d009b6d21, !- WinterDesignDay Schedule:Day Name
  fe21ae2a-573a-4dea-8d4e-e40d009b6d21, !- CustomDay1 Schedule:Day Name
  fe21ae2a-573a-4dea-8d4e-e40d009b6d21; !- CustomDay2 Schedule:Day Name

Schedule:Week:Daily, ApartmentMidRise OCC_APT_SCH_43,
  fe21ae2a-573a-4dea-8d4e-e40d009b6d21, !- Sunday Schedule:Day Name
  fe21ae2a-573a-4dea-8d4e-e40d009b6d21, !- Monday Schedule:Day Name
  fe21ae2a-573a-4dea-8d4e-e40d009b6d21, !- Tuesday Schedule:Day Name
  fe21ae2a-573a-4dea-8d4e-e40d009b6d21, !- Wednesday Schedule:Day Name
  fe21ae2a-573a-4dea-8d4e-e40d009b6d21, !- Thursday Schedule:Day Name
  fe21ae2a-573a-4dea-8d4e-e40d009b6d21, !- Friday Schedule:Day Name
  fe21ae2a-573a-4dea-8d4e-e40d009b6d21, !- Saturday Schedule:Day Name
  fe21ae2a-573a-4dea-8d4e-e40d009b6d21, !- Holiday Schedule:Day Name
  fe21ae2a-573a-4dea-8d4e-e40d009b6d21, !- SummerDesignDay Schedule:Day Name
  fe21ae2a-573a-4dea-8d4e-e40d009b6d21, !- WinterDesignDay Schedule:Day Name
  fe21ae2a-573a-4dea-8d4e-e40d009b6d21, !- CustomDay1 Schedule:Day Name
  fe21ae2a-573a-4dea-8d4e-e40d009b6d21; !- CustomDay2 Schedule:Day Name

Schedule:Week:Daily, ApartmentMidRise OCC_APT_SCH_44,
  fe21ae2a-573a-4dea-8d4e-e40d009b6d21, !- Sunday Schedule:Day Name
  fe21ae2a-573a-4dea-8d4e-e40d009b6d21, !- Monday Schedule:Day Name
  fe21ae2a-573a-4dea-8d4e-e40d009b6d21, !- Tuesday Schedule:Day Name
  fe21ae2a-573a-4dea-8d4e-e40d009b6d21, !- Wednesday Schedule:Day Name
  fe21ae2a-573a-4dea-8d4e-e40d009b6d21, !- Thursday Schedule:Day Name
  fe21ae2a-573a-4dea-8d4e-e40d009b6d21, !- Friday Schedule:Day Name
  fe21ae2a-573a-4dea-8d4e-e40d009b6d21, !- Saturday Schedule:Day Name
  fe21ae2a-573a-4dea-8d4e-e40d009b6d21, !- Holiday Schedule:Day Name
  fe21ae2a-573a-4dea-8d4e-e40d009b6d21, !- SummerDesignDay Schedule:Day Name
  fe21ae2a-573a-4dea-8d4e-e40d009b6d21, !- WinterDesignDay Schedule:Day Name
  fe21ae2a-573a-4dea-8d4e-e40d009b6d21, !- CustomDay1 Schedule:Day Name
  fe21ae2a-573a-4dea-8d4e-e40d009b6d21; !- CustomDay2 Schedule:Day Name

Schedule:Week:Daily, ApartmentMidRise OCC_APT_SCH_45,
  fe21ae2a-573a-4dea-8d4e-e40d009b6d21, !- Sunday Schedule:Day Name
  fe21ae2a-573a-4dea-8d4e-e40d009b6d21, !- Monday Schedule:Day Name
  fe21ae2a-573a-4dea-8d4e-e40d009b6d21, !- Tuesday Schedule:Day Name
  fe21ae2a-573a-4dea-8d4e-e40d009b6d21, !- Wednesday Schedule:Day Name
  fe21ae2a-573a-4dea-8d4e-e40d009b6d21, !- Thursday Schedule:Day Name
  fe21ae2a-573a-4dea-8d4e-e40d009b6d21, !- Friday Schedule:Day Name
  fe21ae2a-573a-4dea-8d4e-e40d009b6d21, !- Saturday Schedule:Day Name
  fe21ae2a-573a-4dea-8d4e-e40d009b6d21, !- Holiday Schedule:Day Name
  fe21ae2a-573a-4dea-8d4e-e40d009b6d21, !- SummerDesignDay Schedule:Day Name
  fe21ae2a-573a-4dea-8d4e-e40d009b6d21, !- WinterDesignDay Schedule:Day Name
  fe21ae2a-573a-4dea-8d4e-e40d009b6d21, !- CustomDay1 Schedule:Day Name
  fe21ae2a-573a-4dea-8d4e-e40d009b6d21; !- CustomDay2 Schedule:Day Name

Schedule:Week:Daily, ApartmentMidRise OCC_APT_SCH_46,
  fe21ae2a-573a-4dea-8d4e-e40d009b6d21, !- Sunday Schedule:Day Name
  fe21ae2a-573a-4dea-8d4e-e40d009b6d21, !- Monday Schedule:Day Name
  fe21ae2a-573a-4dea-8d4e-e40d009b6d21, !- Tuesday Schedule:Day Name
  fe21ae2a-573a-4dea-8d4e-e40d009b6d21, !- Wednesday Schedule:Day Name
  fe21ae2a-573a-4dea-8d4e-e40d009b6d21, !- Thursday Schedule:Day Name
  fe21ae2a-573a-4dea-8d4e-e40d009b6d21, !- Friday Schedule:Day Name
  fe21ae2a-573a-4dea-8d4e-e40d009b6d21, !- Saturday Schedule:Day Name
  fe21ae2a-573a-4dea-8d4e-e40d009b6d21, !- Holiday Schedule:Day Name
  fe21ae2a-573a-4dea-8d4e-e40d009b6d21, !- SummerDesignDay Schedule:Day Name
  fe21ae2a-573a-4dea-8d4e-e40d009b6d21, !- WinterDesignDay Schedule:Day Name
  fe21ae2a-573a-4dea-8d4e-e40d009b6d21, !- CustomDay1 Schedule:Day Name
  fe21ae2a-573a-4dea-8d4e-e40d009b6d21; !- CustomDay2 Schedule:Day Name

Schedule:Week:Daily, ApartmentMidRise OCC_APT_SCH_47,
  fe21ae2a-573a-4dea-8d4e-e40d009b6d21, !- Sunday Schedule:Day Name
  fe21ae2a-573a-4dea-8d4e-e40d009b6d21, !- Monday Schedule:Day Name
  fe21ae2a-573a-4dea-8d4e-e40d009b6d21, !- Tuesday Schedule:Day Name
  fe21ae2a-573a-4dea-8d4e-e40d009b6d21, !- Wednesday Schedule:Day Name
  fe21ae2a-573a-4dea-8d4e-e40d009b6d21, !- Thursday Schedule:Day Name
  fe21ae2a-573a-4dea-8d4e-e40d009b6d21, !- Friday Schedule:Day Name
  fe21ae2a-573a-4dea-8d4e-e40d009b6d21, !- Saturday Schedule:Day Name
  fe21ae2a-573a-4dea-8d4e-e40d009b6d21, !- Holiday Schedule:Day Name
  fe21ae2a-573a-4dea-8d4e-e40d009b6d21, !- SummerDesignDay Schedule:Day Name
  fe21ae2a-573a-4dea-8d4e-e40d009b6d21, !- WinterDesignDay Schedule:Day Name
  fe21ae2a-573a-4dea-8d4e-e40d009b6d21, !- CustomDay1 Schedule:Day Name
  fe21ae2a-573a-4dea-8d4e-e40d009b6d21; !- CustomDay2 Schedule:Day Name

Schedule:Week:Daily, ApartmentMidRise OCC_APT_SCH_48,
  fe21ae2a-573a-4dea-8d4e-e40d009b6d21, !- Sunday Schedule:Day Name
  fe21ae2a-573a-4dea-8d4e-e40d009b6d21, !- Monday Schedule:Day Name
  fe21ae2a-573a-4dea-8d4e-e40d009b6d21, !- Tuesday Schedule:Day Name
  fe21ae2a-573a-4dea-8d4e-e40d009b6d21, !- Wednesday Schedule:Day Name
  fe21ae2a-573a-4dea-8d4e-e40d009b6d21, !- Thursday Schedule:Day Name
  fe21ae2a-573a-4dea-8d4e-e40d009b6d21, !- Friday Schedule:Day Name
  fe21ae2a-573a-4dea-8d4e-e40d009b6d21, !- Saturday Schedule:Day Name
  fe21ae2a-573a-4dea-8d4e-e40d009b6d21, !- Holiday Schedule:Day Name
  fe21ae2a-573a-4dea-8d4e-e40d009b6d21, !- SummerDesignDay Schedule:Day Name
  fe21ae2a-573a-4dea-8d4e-e40d009b6d21, !- WinterDesignDay Schedule:Day Name
  fe21ae2a-573a-4dea-8d4e-e40d009b6d21, !- CustomDay1 Schedule:Day Name
  fe21ae2a-573a-4dea-8d4e-e40d009b6d21; !- CustomDay2 Schedule:Day Name

Schedule:Week:Daily, ApartmentMidRise OCC_APT_SCH_49,
  fe21ae2a-573a-4dea-8d4e-e40d009b6d21, !- Sunday Schedule:Day Name
  fe21ae2a-573a-4dea-8d4e-e40d009b6d21, !- Monday Schedule:Day Name
  fe21ae2a-573a-4dea-8d4e-e40d009b6d21, !- Tuesday Schedule:Day Name
  fe21ae2a-573a-4dea-8d4e-e40d009b6d21, !- Wednesday Schedule:Day Name
  fe21ae2a-573a-4dea-8d4e-e40d009b6d21, !- Thursday Schedule:Day Name
  fe21ae2a-573a-4dea-8d4e-e40d009b6d21, !- Friday Schedule:Day Name
  fe21ae2a-573a-4dea-8d4e-e40d009b6d21, !- Saturday Schedule:Day Name
  fe21ae2a-573a-4dea-8d4e-e40d009b6d21, !- Holiday Schedule:Day Name
  fe21ae2a-573a-4dea-8d4e-e40d009b6d21, !- SummerDesignDay Schedule:Day Name
  fe21ae2a-573a-4dea-8d4e-e40d009b6d21, !- WinterDesignDay Schedule:Day Name
  fe21ae2a-573a-4dea-8d4e-e40d009b6d21, !- CustomDay1 Schedule:Day Name
  fe21ae2a-573a-4dea-8d4e-e40d009b6d21; !- CustomDay2 Schedule:Day Name

Schedule:Week:Daily, ApartmentMidRise OCC_APT_SCH_50,
  fe21ae2a-573a-4dea-8d4e-e40d009b6d21, !- Sunday Schedule:Day Name
  fe21ae2a-573a-4dea-8d4e-e40d009b6d21, !- Monday Schedule:Day Name
  fe21ae2a-573a-4dea-8d4e-e40d009b6d21, !- Tuesday Schedule:Day Name
  fe21ae2a-573a-4dea-8d4e-e40d009b6d21, !- Wednesday Schedule:Day Name
  fe21ae2a-573a-4dea-8d4e-e40d009b6d21, !- Thursday Schedule:Day Name
  fe21ae2a-573a-4dea-8d4e-e40d009b6d21, !- Friday Schedule:Day Name
  fe21ae2a-573a-4dea-8d4e-e40d009b6d21, !- Saturday Schedule:Day Name
  fe21ae2a-573a-4dea-8d4e-e40d009b6d21, !- Holiday Schedule:Day Name
  fe21ae2a-573a-4dea-8d4e-e40d009b6d21, !- SummerDesignDay Schedule:Day Name
  fe21ae2a-573a-4dea-8d4e-e40d009b6d21, !- WinterDesignDay Schedule:Day Name
  fe21ae2a-573a-4dea-8d4e-e40d009b6d21, !- CustomDay1 Schedule:Day Name
  fe21ae2a-573a-4dea-8d4e-e40d009b6d21; !- CustomDay2 Schedule:Day Name

Schedule:Week:Daily, ApartmentMidRise OCC_APT_SCH_51,
  fe21ae2a-573a-4dea-8d4e-e40d009b6d21, !- Sunday Schedule:Day Name
  fe21ae2a-573a-4dea-8d4e-e40d009b6d21, !- Monday Schedule:Day Name
  fe21ae2a-573a-4dea-8d4e-e40d009b6d21, !- Tuesday Schedule:Day Name
  fe21ae2a-573a-4dea-8d4e-e40d009b6d21, !- Wednesday Schedule:Day Name
  fe21ae2a-573a-4dea-8d4e-e40d009b6d21, !- Thursday Schedule:Day Name
  fe21ae2a-573a-4dea-8d4e-e40d009b6d21, !- Friday Schedule:Day Name
  fe21ae2a-573a-4dea-8d4e-e40d009b6d21, !- Saturday Schedule:Day Name
  fe21ae2a-573a-4dea-8d4e-e40d009b6d21, !- Holiday Schedule:Day Name
  fe21ae2a-573a-4dea-8d4e-e40d009b6d21, !- SummerDesignDay Schedule:Day Name
  fe21ae2a-573a-4dea-8d4e-e40d009b6d21, !- WinterDesignDay Schedule:Day Name
  fe21ae2a-573a-4dea-8d4e-e40d009b6d21, !- CustomDay1 Schedule:Day Name
  fe21ae2a-573a-4dea-8d4e-e40d009b6d21; !- CustomDay2 Schedule:Day Name

Schedule:Week:Daily, ApartmentMidRise OCC_APT_SCH_52,
  fe21ae2a-573a-4dea-8d4e-e40d009b6d21, !- Sunday Schedule:Day Name
  fe21ae2a-573a-4dea-8d4e-e40d009b6d21, !- Monday Schedule:Day Name
  fe21ae2a-573a-4dea-8d4e-e40d009b6d21, !- Tuesday Schedule:Day Name
  fe21ae2a-573a-4dea-8d4e-e40d009b6d21, !- Wednesday Schedule:Day Name
  fe21ae2a-573a-4dea-8d4e-e40d009b6d21, !- Thursday Schedule:Day Name
  fe21ae2a-573a-4dea-8d4e-e40d009b6d21, !- Friday Schedule:Day Name
  fe21ae2a-573a-4dea-8d4e-e40d009b6d21, !- Saturday Schedule:Day Name
  fe21ae2a-573a-4dea-8d4e-e40d009b6d21, !- Holiday Schedule:Day Name
  fe21ae2a-573a-4dea-8d4e-e40d009b6d21, !- SummerDesignDay Schedule:Day Name
  fe21ae2a-573a-4dea-8d4e-e40d009b6d21, !- WinterDesignDay Schedule:Day Name
  fe21ae2a-573a-4dea-8d4e-e40d009b6d21, !- CustomDay1 Schedule:Day Name
  fe21ae2a-573a-4dea-8d4e-e40d009b6d21; !- CustomDay2 Schedule:Day Name


Schedule:Year,ApartmentMidRise LTG_APT_SCH,
Fraction,
ApartmentMidRise LTG_APT_SCH_0,1,1,1,7, 
ApartmentMidRise LTG_APT_SCH_1,1,8,1,14, 
ApartmentMidRise LTG_APT_SCH_2,1,15,1,21, 
ApartmentMidRise LTG_APT_SCH_3,1,22,1,28, 
ApartmentMidRise LTG_APT_SCH_4,1,29,2,4, 
ApartmentMidRise LTG_APT_SCH_5,2,5,2,11, 
ApartmentMidRise LTG_APT_SCH_6,2,12,2,18, 
ApartmentMidRise LTG_APT_SCH_7,2,19,2,25, 
ApartmentMidRise LTG_APT_SCH_8,2,26,3,4, 
ApartmentMidRise LTG_APT_SCH_9,3,5,3,11, 
ApartmentMidRise LTG_APT_SCH_10,3,12,3,18, 
ApartmentMidRise LTG_APT_SCH_11,3,19,3,25, 
ApartmentMidRise LTG_APT_SCH_12,3,26,4,1, 
ApartmentMidRise LTG_APT_SCH_13,4,2,4,8, 
ApartmentMidRise LTG_APT_SCH_14,4,9,4,15, 
ApartmentMidRise LTG_APT_SCH_15,4,16,4,22, 
ApartmentMidRise LTG_APT_SCH_16,4,23,4,29, 
ApartmentMidRise LTG_APT_SCH_17,4,30,5,6, 
ApartmentMidRise LTG_APT_SCH_18,5,7,5,13, 
ApartmentMidRise LTG_APT_SCH_19,5,14,5,20, 
ApartmentMidRise LTG_APT_SCH_20,5,21,5,27, 
ApartmentMidRise LTG_APT_SCH_21,5,28,6,3, 
ApartmentMidRise LTG_APT_SCH_22,6,4,6,10, 
ApartmentMidRise LTG_APT_SCH_23,6,11,6,17, 
ApartmentMidRise LTG_APT_SCH_24,6,18,6,24, 
ApartmentMidRise LTG_APT_SCH_25,6,25,7,1, 
ApartmentMidRise LTG_APT_SCH_26,7,2,7,8, 
ApartmentMidRise LTG_APT_SCH_27,7,9,7,15, 
ApartmentMidRise LTG_APT_SCH_28,7,16,7,22, 
ApartmentMidRise LTG_APT_SCH_29,7,23,7,29, 
ApartmentMidRise LTG_APT_SCH_30,7,30,8,5, 
ApartmentMidRise LTG_APT_SCH_31,8,6,8,12, 
ApartmentMidRise LTG_APT_SCH_32,8,13,8,19, 
ApartmentMidRise LTG_APT_SCH_33,8,20,8,26, 
ApartmentMidRise LTG_APT_SCH_34,8,27,9,2, 
ApartmentMidRise LTG_APT_SCH_35,9,3,9,9, 
ApartmentMidRise LTG_APT_SCH_36,9,10,9,16, 
ApartmentMidRise LTG_APT_SCH_37,9,17,9,23, 
ApartmentMidRise LTG_APT_SCH_38,9,24,9,30, 
ApartmentMidRise LTG_APT_SCH_39,10,1,10,7, 
ApartmentMidRise LTG_APT_SCH_40,10,8,10,14, 
ApartmentMidRise LTG_APT_SCH_41,10,15,10,21, 
ApartmentMidRise LTG_APT_SCH_42,10,22,10,28, 
ApartmentMidRise LTG_APT_SCH_43,10,29,11,4, 
ApartmentMidRise LTG_APT_SCH_44,11,5,11,11, 
ApartmentMidRise LTG_APT_SCH_45,11,12,11,18, 
ApartmentMidRise LTG_APT_SCH_46,11,19,11,25, 
ApartmentMidRise LTG_APT_SCH_47,11,26,12,2, 
ApartmentMidRise LTG_APT_SCH_48,12,3,12,9, 
ApartmentMidRise LTG_APT_SCH_49,12,10,12,16, 
ApartmentMidRise LTG_APT_SCH_50,12,17,12,23, 
ApartmentMidRise LTG_APT_SCH_51,12,24,12,30, 
ApartmentMidRise LTG_APT_SCH_52,12,31,12,31;

Schedule:Week:Daily, ApartmentMidRise LTG_APT_SCH_0,
  19f61bd9-0ec3-48e3-83f9-aeca46be8bf7, !- Sunday Schedule:Day Name
  19f61bd9-0ec3-48e3-83f9-aeca46be8bf7, !- Monday Schedule:Day Name
  19f61bd9-0ec3-48e3-83f9-aeca46be8bf7, !- Tuesday Schedule:Day Name
  19f61bd9-0ec3-48e3-83f9-aeca46be8bf7, !- Wednesday Schedule:Day Name
  19f61bd9-0ec3-48e3-83f9-aeca46be8bf7, !- Thursday Schedule:Day Name
  19f61bd9-0ec3-48e3-83f9-aeca46be8bf7, !- Friday Schedule:Day Name
  19f61bd9-0ec3-48e3-83f9-aeca46be8bf7, !- Saturday Schedule:Day Name
  19f61bd9-0ec3-48e3-83f9-aeca46be8bf7, !- Holiday Schedule:Day Name
  19f61bd9-0ec3-48e3-83f9-aeca46be8bf7, !- SummerDesignDay Schedule:Day Name
  19f61bd9-0ec3-48e3-83f9-aeca46be8bf7, !- WinterDesignDay Schedule:Day Name
  19f61bd9-0ec3-48e3-83f9-aeca46be8bf7, !- CustomDay1 Schedule:Day Name
  19f61bd9-0ec3-48e3-83f9-aeca46be8bf7; !- CustomDay2 Schedule:Day Name

Schedule:Week:Daily, ApartmentMidRise LTG_APT_SCH_1,
  19f61bd9-0ec3-48e3-83f9-aeca46be8bf7, !- Sunday Schedule:Day Name
  19f61bd9-0ec3-48e3-83f9-aeca46be8bf7, !- Monday Schedule:Day Name
  19f61bd9-0ec3-48e3-83f9-aeca46be8bf7, !- Tuesday Schedule:Day Name
  19f61bd9-0ec3-48e3-83f9-aeca46be8bf7, !- Wednesday Schedule:Day Name
  19f61bd9-0ec3-48e3-83f9-aeca46be8bf7, !- Thursday Schedule:Day Name
  19f61bd9-0ec3-48e3-83f9-aeca46be8bf7, !- Friday Schedule:Day Name
  19f61bd9-0ec3-48e3-83f9-aeca46be8bf7, !- Saturday Schedule:Day Name
  19f61bd9-0ec3-48e3-83f9-aeca46be8bf7, !- Holiday Schedule:Day Name
  19f61bd9-0ec3-48e3-83f9-aeca46be8bf7, !- SummerDesignDay Schedule:Day Name
  19f61bd9-0ec3-48e3-83f9-aeca46be8bf7, !- WinterDesignDay Schedule:Day Name
  19f61bd9-0ec3-48e3-83f9-aeca46be8bf7, !- CustomDay1 Schedule:Day Name
  19f61bd9-0ec3-48e3-83f9-aeca46be8bf7; !- CustomDay2 Schedule:Day Name

Schedule:Week:Daily, ApartmentMidRise LTG_APT_SCH_2,
  19f61bd9-0ec3-48e3-83f9-aeca46be8bf7, !- Sunday Schedule:Day Name
  19f61bd9-0ec3-48e3-83f9-aeca46be8bf7, !- Monday Schedule:Day Name
  19f61bd9-0ec3-48e3-83f9-aeca46be8bf7, !- Tuesday Schedule:Day Name
  19f61bd9-0ec3-48e3-83f9-aeca46be8bf7, !- Wednesday Schedule:Day Name
  19f61bd9-0ec3-48e3-83f9-aeca46be8bf7, !- Thursday Schedule:Day Name
  19f61bd9-0ec3-48e3-83f9-aeca46be8bf7, !- Friday Schedule:Day Name
  19f61bd9-0ec3-48e3-83f9-aeca46be8bf7, !- Saturday Schedule:Day Name
  19f61bd9-0ec3-48e3-83f9-aeca46be8bf7, !- Holiday Schedule:Day Name
  19f61bd9-0ec3-48e3-83f9-aeca46be8bf7, !- SummerDesignDay Schedule:Day Name
  19f61bd9-0ec3-48e3-83f9-aeca46be8bf7, !- WinterDesignDay Schedule:Day Name
  19f61bd9-0ec3-48e3-83f9-aeca46be8bf7, !- CustomDay1 Schedule:Day Name
  19f61bd9-0ec3-48e3-83f9-aeca46be8bf7; !- CustomDay2 Schedule:Day Name

Schedule:Week:Daily, ApartmentMidRise LTG_APT_SCH_3,
  19f61bd9-0ec3-48e3-83f9-aeca46be8bf7, !- Sunday Schedule:Day Name
  19f61bd9-0ec3-48e3-83f9-aeca46be8bf7, !- Monday Schedule:Day Name
  19f61bd9-0ec3-48e3-83f9-aeca46be8bf7, !- Tuesday Schedule:Day Name
  19f61bd9-0ec3-48e3-83f9-aeca46be8bf7, !- Wednesday Schedule:Day Name
  19f61bd9-0ec3-48e3-83f9-aeca46be8bf7, !- Thursday Schedule:Day Name
  19f61bd9-0ec3-48e3-83f9-aeca46be8bf7, !- Friday Schedule:Day Name
  19f61bd9-0ec3-48e3-83f9-aeca46be8bf7, !- Saturday Schedule:Day Name
  19f61bd9-0ec3-48e3-83f9-aeca46be8bf7, !- Holiday Schedule:Day Name
  19f61bd9-0ec3-48e3-83f9-aeca46be8bf7, !- SummerDesignDay Schedule:Day Name
  19f61bd9-0ec3-48e3-83f9-aeca46be8bf7, !- WinterDesignDay Schedule:Day Name
  19f61bd9-0ec3-48e3-83f9-aeca46be8bf7, !- CustomDay1 Schedule:Day Name
  19f61bd9-0ec3-48e3-83f9-aeca46be8bf7; !- CustomDay2 Schedule:Day Name

Schedule:Week:Daily, ApartmentMidRise LTG_APT_SCH_4,
  19f61bd9-0ec3-48e3-83f9-aeca46be8bf7, !- Sunday Schedule:Day Name
  19f61bd9-0ec3-48e3-83f9-aeca46be8bf7, !- Monday Schedule:Day Name
  19f61bd9-0ec3-48e3-83f9-aeca46be8bf7, !- Tuesday Schedule:Day Name
  19f61bd9-0ec3-48e3-83f9-aeca46be8bf7, !- Wednesday Schedule:Day Name
  19f61bd9-0ec3-48e3-83f9-aeca46be8bf7, !- Thursday Schedule:Day Name
  19f61bd9-0ec3-48e3-83f9-aeca46be8bf7, !- Friday Schedule:Day Name
  19f61bd9-0ec3-48e3-83f9-aeca46be8bf7, !- Saturday Schedule:Day Name
  19f61bd9-0ec3-48e3-83f9-aeca46be8bf7, !- Holiday Schedule:Day Name
  19f61bd9-0ec3-48e3-83f9-aeca46be8bf7, !- SummerDesignDay Schedule:Day Name
  19f61bd9-0ec3-48e3-83f9-aeca46be8bf7, !- WinterDesignDay Schedule:Day Name
  19f61bd9-0ec3-48e3-83f9-aeca46be8bf7, !- CustomDay1 Schedule:Day Name
  19f61bd9-0ec3-48e3-83f9-aeca46be8bf7; !- CustomDay2 Schedule:Day Name

Schedule:Week:Daily, ApartmentMidRise LTG_APT_SCH_5,
  19f61bd9-0ec3-48e3-83f9-aeca46be8bf7, !- Sunday Schedule:Day Name
  19f61bd9-0ec3-48e3-83f9-aeca46be8bf7, !- Monday Schedule:Day Name
  19f61bd9-0ec3-48e3-83f9-aeca46be8bf7, !- Tuesday Schedule:Day Name
  19f61bd9-0ec3-48e3-83f9-aeca46be8bf7, !- Wednesday Schedule:Day Name
  19f61bd9-0ec3-48e3-83f9-aeca46be8bf7, !- Thursday Schedule:Day Name
  19f61bd9-0ec3-48e3-83f9-aeca46be8bf7, !- Friday Schedule:Day Name
  19f61bd9-0ec3-48e3-83f9-aeca46be8bf7, !- Saturday Schedule:Day Name
  19f61bd9-0ec3-48e3-83f9-aeca46be8bf7, !- Holiday Schedule:Day Name
  19f61bd9-0ec3-48e3-83f9-aeca46be8bf7, !- SummerDesignDay Schedule:Day Name
  19f61bd9-0ec3-48e3-83f9-aeca46be8bf7, !- WinterDesignDay Schedule:Day Name
  19f61bd9-0ec3-48e3-83f9-aeca46be8bf7, !- CustomDay1 Schedule:Day Name
  19f61bd9-0ec3-48e3-83f9-aeca46be8bf7; !- CustomDay2 Schedule:Day Name

Schedule:Week:Daily, ApartmentMidRise LTG_APT_SCH_6,
  19f61bd9-0ec3-48e3-83f9-aeca46be8bf7, !- Sunday Schedule:Day Name
  19f61bd9-0ec3-48e3-83f9-aeca46be8bf7, !- Monday Schedule:Day Name
  19f61bd9-0ec3-48e3-83f9-aeca46be8bf7, !- Tuesday Schedule:Day Name
  19f61bd9-0ec3-48e3-83f9-aeca46be8bf7, !- Wednesday Schedule:Day Name
  19f61bd9-0ec3-48e3-83f9-aeca46be8bf7, !- Thursday Schedule:Day Name
  19f61bd9-0ec3-48e3-83f9-aeca46be8bf7, !- Friday Schedule:Day Name
  19f61bd9-0ec3-48e3-83f9-aeca46be8bf7, !- Saturday Schedule:Day Name
  19f61bd9-0ec3-48e3-83f9-aeca46be8bf7, !- Holiday Schedule:Day Name
  19f61bd9-0ec3-48e3-83f9-aeca46be8bf7, !- SummerDesignDay Schedule:Day Name
  19f61bd9-0ec3-48e3-83f9-aeca46be8bf7, !- WinterDesignDay Schedule:Day Name
  19f61bd9-0ec3-48e3-83f9-aeca46be8bf7, !- CustomDay1 Schedule:Day Name
  19f61bd9-0ec3-48e3-83f9-aeca46be8bf7; !- CustomDay2 Schedule:Day Name

Schedule:Week:Daily, ApartmentMidRise LTG_APT_SCH_7,
  19f61bd9-0ec3-48e3-83f9-aeca46be8bf7, !- Sunday Schedule:Day Name
  19f61bd9-0ec3-48e3-83f9-aeca46be8bf7, !- Monday Schedule:Day Name
  19f61bd9-0ec3-48e3-83f9-aeca46be8bf7, !- Tuesday Schedule:Day Name
  19f61bd9-0ec3-48e3-83f9-aeca46be8bf7, !- Wednesday Schedule:Day Name
  19f61bd9-0ec3-48e3-83f9-aeca46be8bf7, !- Thursday Schedule:Day Name
  19f61bd9-0ec3-48e3-83f9-aeca46be8bf7, !- Friday Schedule:Day Name
  19f61bd9-0ec3-48e3-83f9-aeca46be8bf7, !- Saturday Schedule:Day Name
  19f61bd9-0ec3-48e3-83f9-aeca46be8bf7, !- Holiday Schedule:Day Name
  19f61bd9-0ec3-48e3-83f9-aeca46be8bf7, !- SummerDesignDay Schedule:Day Name
  19f61bd9-0ec3-48e3-83f9-aeca46be8bf7, !- WinterDesignDay Schedule:Day Name
  19f61bd9-0ec3-48e3-83f9-aeca46be8bf7, !- CustomDay1 Schedule:Day Name
  19f61bd9-0ec3-48e3-83f9-aeca46be8bf7; !- CustomDay2 Schedule:Day Name

Schedule:Week:Daily, ApartmentMidRise LTG_APT_SCH_8,
  19f61bd9-0ec3-48e3-83f9-aeca46be8bf7, !- Sunday Schedule:Day Name
  19f61bd9-0ec3-48e3-83f9-aeca46be8bf7, !- Monday Schedule:Day Name
  19f61bd9-0ec3-48e3-83f9-aeca46be8bf7, !- Tuesday Schedule:Day Name
  19f61bd9-0ec3-48e3-83f9-aeca46be8bf7, !- Wednesday Schedule:Day Name
  19f61bd9-0ec3-48e3-83f9-aeca46be8bf7, !- Thursday Schedule:Day Name
  19f61bd9-0ec3-48e3-83f9-aeca46be8bf7, !- Friday Schedule:Day Name
  19f61bd9-0ec3-48e3-83f9-aeca46be8bf7, !- Saturday Schedule:Day Name
  19f61bd9-0ec3-48e3-83f9-aeca46be8bf7, !- Holiday Schedule:Day Name
  19f61bd9-0ec3-48e3-83f9-aeca46be8bf7, !- SummerDesignDay Schedule:Day Name
  19f61bd9-0ec3-48e3-83f9-aeca46be8bf7, !- WinterDesignDay Schedule:Day Name
  19f61bd9-0ec3-48e3-83f9-aeca46be8bf7, !- CustomDay1 Schedule:Day Name
  19f61bd9-0ec3-48e3-83f9-aeca46be8bf7; !- CustomDay2 Schedule:Day Name

Schedule:Week:Daily, ApartmentMidRise LTG_APT_SCH_9,
  19f61bd9-0ec3-48e3-83f9-aeca46be8bf7, !- Sunday Schedule:Day Name
  19f61bd9-0ec3-48e3-83f9-aeca46be8bf7, !- Monday Schedule:Day Name
  19f61bd9-0ec3-48e3-83f9-aeca46be8bf7, !- Tuesday Schedule:Day Name
  19f61bd9-0ec3-48e3-83f9-aeca46be8bf7, !- Wednesday Schedule:Day Name
  19f61bd9-0ec3-48e3-83f9-aeca46be8bf7, !- Thursday Schedule:Day Name
  19f61bd9-0ec3-48e3-83f9-aeca46be8bf7, !- Friday Schedule:Day Name
  19f61bd9-0ec3-48e3-83f9-aeca46be8bf7, !- Saturday Schedule:Day Name
  19f61bd9-0ec3-48e3-83f9-aeca46be8bf7, !- Holiday Schedule:Day Name
  19f61bd9-0ec3-48e3-83f9-aeca46be8bf7, !- SummerDesignDay Schedule:Day Name
  19f61bd9-0ec3-48e3-83f9-aeca46be8bf7, !- WinterDesignDay Schedule:Day Name
  19f61bd9-0ec3-48e3-83f9-aeca46be8bf7, !- CustomDay1 Schedule:Day Name
  19f61bd9-0ec3-48e3-83f9-aeca46be8bf7; !- CustomDay2 Schedule:Day Name

Schedule:Week:Daily, ApartmentMidRise LTG_APT_SCH_10,
  19f61bd9-0ec3-48e3-83f9-aeca46be8bf7, !- Sunday Schedule:Day Name
  19f61bd9-0ec3-48e3-83f9-aeca46be8bf7, !- Monday Schedule:Day Name
  19f61bd9-0ec3-48e3-83f9-aeca46be8bf7, !- Tuesday Schedule:Day Name
  19f61bd9-0ec3-48e3-83f9-aeca46be8bf7, !- Wednesday Schedule:Day Name
  19f61bd9-0ec3-48e3-83f9-aeca46be8bf7, !- Thursday Schedule:Day Name
  19f61bd9-0ec3-48e3-83f9-aeca46be8bf7, !- Friday Schedule:Day Name
  19f61bd9-0ec3-48e3-83f9-aeca46be8bf7, !- Saturday Schedule:Day Name
  19f61bd9-0ec3-48e3-83f9-aeca46be8bf7, !- Holiday Schedule:Day Name
  19f61bd9-0ec3-48e3-83f9-aeca46be8bf7, !- SummerDesignDay Schedule:Day Name
  19f61bd9-0ec3-48e3-83f9-aeca46be8bf7, !- WinterDesignDay Schedule:Day Name
  19f61bd9-0ec3-48e3-83f9-aeca46be8bf7, !- CustomDay1 Schedule:Day Name
  19f61bd9-0ec3-48e3-83f9-aeca46be8bf7; !- CustomDay2 Schedule:Day Name

Schedule:Week:Daily, ApartmentMidRise LTG_APT_SCH_11,
  19f61bd9-0ec3-48e3-83f9-aeca46be8bf7, !- Sunday Schedule:Day Name
  19f61bd9-0ec3-48e3-83f9-aeca46be8bf7, !- Monday Schedule:Day Name
  19f61bd9-0ec3-48e3-83f9-aeca46be8bf7, !- Tuesday Schedule:Day Name
  19f61bd9-0ec3-48e3-83f9-aeca46be8bf7, !- Wednesday Schedule:Day Name
  19f61bd9-0ec3-48e3-83f9-aeca46be8bf7, !- Thursday Schedule:Day Name
  19f61bd9-0ec3-48e3-83f9-aeca46be8bf7, !- Friday Schedule:Day Name
  19f61bd9-0ec3-48e3-83f9-aeca46be8bf7, !- Saturday Schedule:Day Name
  19f61bd9-0ec3-48e3-83f9-aeca46be8bf7, !- Holiday Schedule:Day Name
  19f61bd9-0ec3-48e3-83f9-aeca46be8bf7, !- SummerDesignDay Schedule:Day Name
  19f61bd9-0ec3-48e3-83f9-aeca46be8bf7, !- WinterDesignDay Schedule:Day Name
  19f61bd9-0ec3-48e3-83f9-aeca46be8bf7, !- CustomDay1 Schedule:Day Name
  19f61bd9-0ec3-48e3-83f9-aeca46be8bf7; !- CustomDay2 Schedule:Day Name

Schedule:Week:Daily, ApartmentMidRise LTG_APT_SCH_12,
  19f61bd9-0ec3-48e3-83f9-aeca46be8bf7, !- Sunday Schedule:Day Name
  19f61bd9-0ec3-48e3-83f9-aeca46be8bf7, !- Monday Schedule:Day Name
  19f61bd9-0ec3-48e3-83f9-aeca46be8bf7, !- Tuesday Schedule:Day Name
  19f61bd9-0ec3-48e3-83f9-aeca46be8bf7, !- Wednesday Schedule:Day Name
  19f61bd9-0ec3-48e3-83f9-aeca46be8bf7, !- Thursday Schedule:Day Name
  19f61bd9-0ec3-48e3-83f9-aeca46be8bf7, !- Friday Schedule:Day Name
  19f61bd9-0ec3-48e3-83f9-aeca46be8bf7, !- Saturday Schedule:Day Name
  19f61bd9-0ec3-48e3-83f9-aeca46be8bf7, !- Holiday Schedule:Day Name
  19f61bd9-0ec3-48e3-83f9-aeca46be8bf7, !- SummerDesignDay Schedule:Day Name
  19f61bd9-0ec3-48e3-83f9-aeca46be8bf7, !- WinterDesignDay Schedule:Day Name
  19f61bd9-0ec3-48e3-83f9-aeca46be8bf7, !- CustomDay1 Schedule:Day Name
  19f61bd9-0ec3-48e3-83f9-aeca46be8bf7; !- CustomDay2 Schedule:Day Name

Schedule:Week:Daily, ApartmentMidRise LTG_APT_SCH_13,
  19f61bd9-0ec3-48e3-83f9-aeca46be8bf7, !- Sunday Schedule:Day Name
  19f61bd9-0ec3-48e3-83f9-aeca46be8bf7, !- Monday Schedule:Day Name
  19f61bd9-0ec3-48e3-83f9-aeca46be8bf7, !- Tuesday Schedule:Day Name
  19f61bd9-0ec3-48e3-83f9-aeca46be8bf7, !- Wednesday Schedule:Day Name
  19f61bd9-0ec3-48e3-83f9-aeca46be8bf7, !- Thursday Schedule:Day Name
  19f61bd9-0ec3-48e3-83f9-aeca46be8bf7, !- Friday Schedule:Day Name
  19f61bd9-0ec3-48e3-83f9-aeca46be8bf7, !- Saturday Schedule:Day Name
  19f61bd9-0ec3-48e3-83f9-aeca46be8bf7, !- Holiday Schedule:Day Name
  19f61bd9-0ec3-48e3-83f9-aeca46be8bf7, !- SummerDesignDay Schedule:Day Name
  19f61bd9-0ec3-48e3-83f9-aeca46be8bf7, !- WinterDesignDay Schedule:Day Name
  19f61bd9-0ec3-48e3-83f9-aeca46be8bf7, !- CustomDay1 Schedule:Day Name
  19f61bd9-0ec3-48e3-83f9-aeca46be8bf7; !- CustomDay2 Schedule:Day Name

Schedule:Week:Daily, ApartmentMidRise LTG_APT_SCH_14,
  19f61bd9-0ec3-48e3-83f9-aeca46be8bf7, !- Sunday Schedule:Day Name
  19f61bd9-0ec3-48e3-83f9-aeca46be8bf7, !- Monday Schedule:Day Name
  19f61bd9-0ec3-48e3-83f9-aeca46be8bf7, !- Tuesday Schedule:Day Name
  19f61bd9-0ec3-48e3-83f9-aeca46be8bf7, !- Wednesday Schedule:Day Name
  19f61bd9-0ec3-48e3-83f9-aeca46be8bf7, !- Thursday Schedule:Day Name
  19f61bd9-0ec3-48e3-83f9-aeca46be8bf7, !- Friday Schedule:Day Name
  19f61bd9-0ec3-48e3-83f9-aeca46be8bf7, !- Saturday Schedule:Day Name
  19f61bd9-0ec3-48e3-83f9-aeca46be8bf7, !- Holiday Schedule:Day Name
  19f61bd9-0ec3-48e3-83f9-aeca46be8bf7, !- SummerDesignDay Schedule:Day Name
  19f61bd9-0ec3-48e3-83f9-aeca46be8bf7, !- WinterDesignDay Schedule:Day Name
  19f61bd9-0ec3-48e3-83f9-aeca46be8bf7, !- CustomDay1 Schedule:Day Name
  19f61bd9-0ec3-48e3-83f9-aeca46be8bf7; !- CustomDay2 Schedule:Day Name

Schedule:Week:Daily, ApartmentMidRise LTG_APT_SCH_15,
  19f61bd9-0ec3-48e3-83f9-aeca46be8bf7, !- Sunday Schedule:Day Name
  19f61bd9-0ec3-48e3-83f9-aeca46be8bf7, !- Monday Schedule:Day Name
  19f61bd9-0ec3-48e3-83f9-aeca46be8bf7, !- Tuesday Schedule:Day Name
  19f61bd9-0ec3-48e3-83f9-aeca46be8bf7, !- Wednesday Schedule:Day Name
  19f61bd9-0ec3-48e3-83f9-aeca46be8bf7, !- Thursday Schedule:Day Name
  19f61bd9-0ec3-48e3-83f9-aeca46be8bf7, !- Friday Schedule:Day Name
  19f61bd9-0ec3-48e3-83f9-aeca46be8bf7, !- Saturday Schedule:Day Name
  19f61bd9-0ec3-48e3-83f9-aeca46be8bf7, !- Holiday Schedule:Day Name
  19f61bd9-0ec3-48e3-83f9-aeca46be8bf7, !- SummerDesignDay Schedule:Day Name
  19f61bd9-0ec3-48e3-83f9-aeca46be8bf7, !- WinterDesignDay Schedule:Day Name
  19f61bd9-0ec3-48e3-83f9-aeca46be8bf7, !- CustomDay1 Schedule:Day Name
  19f61bd9-0ec3-48e3-83f9-aeca46be8bf7; !- CustomDay2 Schedule:Day Name

Schedule:Week:Daily, ApartmentMidRise LTG_APT_SCH_16,
  19f61bd9-0ec3-48e3-83f9-aeca46be8bf7, !- Sunday Schedule:Day Name
  19f61bd9-0ec3-48e3-83f9-aeca46be8bf7, !- Monday Schedule:Day Name
  19f61bd9-0ec3-48e3-83f9-aeca46be8bf7, !- Tuesday Schedule:Day Name
  19f61bd9-0ec3-48e3-83f9-aeca46be8bf7, !- Wednesday Schedule:Day Name
  19f61bd9-0ec3-48e3-83f9-aeca46be8bf7, !- Thursday Schedule:Day Name
  19f61bd9-0ec3-48e3-83f9-aeca46be8bf7, !- Friday Schedule:Day Name
  19f61bd9-0ec3-48e3-83f9-aeca46be8bf7, !- Saturday Schedule:Day Name
  19f61bd9-0ec3-48e3-83f9-aeca46be8bf7, !- Holiday Schedule:Day Name
  19f61bd9-0ec3-48e3-83f9-aeca46be8bf7, !- SummerDesignDay Schedule:Day Name
  19f61bd9-0ec3-48e3-83f9-aeca46be8bf7, !- WinterDesignDay Schedule:Day Name
  19f61bd9-0ec3-48e3-83f9-aeca46be8bf7, !- CustomDay1 Schedule:Day Name
  19f61bd9-0ec3-48e3-83f9-aeca46be8bf7; !- CustomDay2 Schedule:Day Name

Schedule:Week:Daily, ApartmentMidRise LTG_APT_SCH_17,
  19f61bd9-0ec3-48e3-83f9-aeca46be8bf7, !- Sunday Schedule:Day Name
  19f61bd9-0ec3-48e3-83f9-aeca46be8bf7, !- Monday Schedule:Day Name
  19f61bd9-0ec3-48e3-83f9-aeca46be8bf7, !- Tuesday Schedule:Day Name
  19f61bd9-0ec3-48e3-83f9-aeca46be8bf7, !- Wednesday Schedule:Day Name
  19f61bd9-0ec3-48e3-83f9-aeca46be8bf7, !- Thursday Schedule:Day Name
  19f61bd9-0ec3-48e3-83f9-aeca46be8bf7, !- Friday Schedule:Day Name
  19f61bd9-0ec3-48e3-83f9-aeca46be8bf7, !- Saturday Schedule:Day Name
  19f61bd9-0ec3-48e3-83f9-aeca46be8bf7, !- Holiday Schedule:Day Name
  19f61bd9-0ec3-48e3-83f9-aeca46be8bf7, !- SummerDesignDay Schedule:Day Name
  19f61bd9-0ec3-48e3-83f9-aeca46be8bf7, !- WinterDesignDay Schedule:Day Name
  19f61bd9-0ec3-48e3-83f9-aeca46be8bf7, !- CustomDay1 Schedule:Day Name
  19f61bd9-0ec3-48e3-83f9-aeca46be8bf7; !- CustomDay2 Schedule:Day Name

Schedule:Week:Daily, ApartmentMidRise LTG_APT_SCH_18,
  19f61bd9-0ec3-48e3-83f9-aeca46be8bf7, !- Sunday Schedule:Day Name
  19f61bd9-0ec3-48e3-83f9-aeca46be8bf7, !- Monday Schedule:Day Name
  19f61bd9-0ec3-48e3-83f9-aeca46be8bf7, !- Tuesday Schedule:Day Name
  19f61bd9-0ec3-48e3-83f9-aeca46be8bf7, !- Wednesday Schedule:Day Name
  19f61bd9-0ec3-48e3-83f9-aeca46be8bf7, !- Thursday Schedule:Day Name
  19f61bd9-0ec3-48e3-83f9-aeca46be8bf7, !- Friday Schedule:Day Name
  19f61bd9-0ec3-48e3-83f9-aeca46be8bf7, !- Saturday Schedule:Day Name
  19f61bd9-0ec3-48e3-83f9-aeca46be8bf7, !- Holiday Schedule:Day Name
  19f61bd9-0ec3-48e3-83f9-aeca46be8bf7, !- SummerDesignDay Schedule:Day Name
  19f61bd9-0ec3-48e3-83f9-aeca46be8bf7, !- WinterDesignDay Schedule:Day Name
  19f61bd9-0ec3-48e3-83f9-aeca46be8bf7, !- CustomDay1 Schedule:Day Name
  19f61bd9-0ec3-48e3-83f9-aeca46be8bf7; !- CustomDay2 Schedule:Day Name

Schedule:Week:Daily, ApartmentMidRise LTG_APT_SCH_19,
  19f61bd9-0ec3-48e3-83f9-aeca46be8bf7, !- Sunday Schedule:Day Name
  19f61bd9-0ec3-48e3-83f9-aeca46be8bf7, !- Monday Schedule:Day Name
  19f61bd9-0ec3-48e3-83f9-aeca46be8bf7, !- Tuesday Schedule:Day Name
  19f61bd9-0ec3-48e3-83f9-aeca46be8bf7, !- Wednesday Schedule:Day Name
  19f61bd9-0ec3-48e3-83f9-aeca46be8bf7, !- Thursday Schedule:Day Name
  19f61bd9-0ec3-48e3-83f9-aeca46be8bf7, !- Friday Schedule:Day Name
  19f61bd9-0ec3-48e3-83f9-aeca46be8bf7, !- Saturday Schedule:Day Name
  19f61bd9-0ec3-48e3-83f9-aeca46be8bf7, !- Holiday Schedule:Day Name
  19f61bd9-0ec3-48e3-83f9-aeca46be8bf7, !- SummerDesignDay Schedule:Day Name
  19f61bd9-0ec3-48e3-83f9-aeca46be8bf7, !- WinterDesignDay Schedule:Day Name
  19f61bd9-0ec3-48e3-83f9-aeca46be8bf7, !- CustomDay1 Schedule:Day Name
  19f61bd9-0ec3-48e3-83f9-aeca46be8bf7; !- CustomDay2 Schedule:Day Name

Schedule:Week:Daily, ApartmentMidRise LTG_APT_SCH_20,
  19f61bd9-0ec3-48e3-83f9-aeca46be8bf7, !- Sunday Schedule:Day Name
  19f61bd9-0ec3-48e3-83f9-aeca46be8bf7, !- Monday Schedule:Day Name
  19f61bd9-0ec3-48e3-83f9-aeca46be8bf7, !- Tuesday Schedule:Day Name
  19f61bd9-0ec3-48e3-83f9-aeca46be8bf7, !- Wednesday Schedule:Day Name
  19f61bd9-0ec3-48e3-83f9-aeca46be8bf7, !- Thursday Schedule:Day Name
  19f61bd9-0ec3-48e3-83f9-aeca46be8bf7, !- Friday Schedule:Day Name
  19f61bd9-0ec3-48e3-83f9-aeca46be8bf7, !- Saturday Schedule:Day Name
  19f61bd9-0ec3-48e3-83f9-aeca46be8bf7, !- Holiday Schedule:Day Name
  19f61bd9-0ec3-48e3-83f9-aeca46be8bf7, !- SummerDesignDay Schedule:Day Name
  19f61bd9-0ec3-48e3-83f9-aeca46be8bf7, !- WinterDesignDay Schedule:Day Name
  19f61bd9-0ec3-48e3-83f9-aeca46be8bf7, !- CustomDay1 Schedule:Day Name
  19f61bd9-0ec3-48e3-83f9-aeca46be8bf7; !- CustomDay2 Schedule:Day Name

Schedule:Week:Daily, ApartmentMidRise LTG_APT_SCH_21,
  19f61bd9-0ec3-48e3-83f9-aeca46be8bf7, !- Sunday Schedule:Day Name
  19f61bd9-0ec3-48e3-83f9-aeca46be8bf7, !- Monday Schedule:Day Name
  19f61bd9-0ec3-48e3-83f9-aeca46be8bf7, !- Tuesday Schedule:Day Name
  19f61bd9-0ec3-48e3-83f9-aeca46be8bf7, !- Wednesday Schedule:Day Name
  19f61bd9-0ec3-48e3-83f9-aeca46be8bf7, !- Thursday Schedule:Day Name
  19f61bd9-0ec3-48e3-83f9-aeca46be8bf7, !- Friday Schedule:Day Name
  19f61bd9-0ec3-48e3-83f9-aeca46be8bf7, !- Saturday Schedule:Day Name
  19f61bd9-0ec3-48e3-83f9-aeca46be8bf7, !- Holiday Schedule:Day Name
  19f61bd9-0ec3-48e3-83f9-aeca46be8bf7, !- SummerDesignDay Schedule:Day Name
  19f61bd9-0ec3-48e3-83f9-aeca46be8bf7, !- WinterDesignDay Schedule:Day Name
  19f61bd9-0ec3-48e3-83f9-aeca46be8bf7, !- CustomDay1 Schedule:Day Name
  19f61bd9-0ec3-48e3-83f9-aeca46be8bf7; !- CustomDay2 Schedule:Day Name

Schedule:Week:Daily, ApartmentMidRise LTG_APT_SCH_22,
  19f61bd9-0ec3-48e3-83f9-aeca46be8bf7, !- Sunday Schedule:Day Name
  19f61bd9-0ec3-48e3-83f9-aeca46be8bf7, !- Monday Schedule:Day Name
  19f61bd9-0ec3-48e3-83f9-aeca46be8bf7, !- Tuesday Schedule:Day Name
  19f61bd9-0ec3-48e3-83f9-aeca46be8bf7, !- Wednesday Schedule:Day Name
  19f61bd9-0ec3-48e3-83f9-aeca46be8bf7, !- Thursday Schedule:Day Name
  19f61bd9-0ec3-48e3-83f9-aeca46be8bf7, !- Friday Schedule:Day Name
  19f61bd9-0ec3-48e3-83f9-aeca46be8bf7, !- Saturday Schedule:Day Name
  19f61bd9-0ec3-48e3-83f9-aeca46be8bf7, !- Holiday Schedule:Day Name
  19f61bd9-0ec3-48e3-83f9-aeca46be8bf7, !- SummerDesignDay Schedule:Day Name
  19f61bd9-0ec3-48e3-83f9-aeca46be8bf7, !- WinterDesignDay Schedule:Day Name
  19f61bd9-0ec3-48e3-83f9-aeca46be8bf7, !- CustomDay1 Schedule:Day Name
  19f61bd9-0ec3-48e3-83f9-aeca46be8bf7; !- CustomDay2 Schedule:Day Name

Schedule:Week:Daily, ApartmentMidRise LTG_APT_SCH_23,
  19f61bd9-0ec3-48e3-83f9-aeca46be8bf7, !- Sunday Schedule:Day Name
  19f61bd9-0ec3-48e3-83f9-aeca46be8bf7, !- Monday Schedule:Day Name
  19f61bd9-0ec3-48e3-83f9-aeca46be8bf7, !- Tuesday Schedule:Day Name
  19f61bd9-0ec3-48e3-83f9-aeca46be8bf7, !- Wednesday Schedule:Day Name
  19f61bd9-0ec3-48e3-83f9-aeca46be8bf7, !- Thursday Schedule:Day Name
  19f61bd9-0ec3-48e3-83f9-aeca46be8bf7, !- Friday Schedule:Day Name
  19f61bd9-0ec3-48e3-83f9-aeca46be8bf7, !- Saturday Schedule:Day Name
  19f61bd9-0ec3-48e3-83f9-aeca46be8bf7, !- Holiday Schedule:Day Name
  19f61bd9-0ec3-48e3-83f9-aeca46be8bf7, !- SummerDesignDay Schedule:Day Name
  19f61bd9-0ec3-48e3-83f9-aeca46be8bf7, !- WinterDesignDay Schedule:Day Name
  19f61bd9-0ec3-48e3-83f9-aeca46be8bf7, !- CustomDay1 Schedule:Day Name
  19f61bd9-0ec3-48e3-83f9-aeca46be8bf7; !- CustomDay2 Schedule:Day Name

Schedule:Week:Daily, ApartmentMidRise LTG_APT_SCH_24,
  19f61bd9-0ec3-48e3-83f9-aeca46be8bf7, !- Sunday Schedule:Day Name
  19f61bd9-0ec3-48e3-83f9-aeca46be8bf7, !- Monday Schedule:Day Name
  19f61bd9-0ec3-48e3-83f9-aeca46be8bf7, !- Tuesday Schedule:Day Name
  19f61bd9-0ec3-48e3-83f9-aeca46be8bf7, !- Wednesday Schedule:Day Name
  19f61bd9-0ec3-48e3-83f9-aeca46be8bf7, !- Thursday Schedule:Day Name
  19f61bd9-0ec3-48e3-83f9-aeca46be8bf7, !- Friday Schedule:Day Name
  19f61bd9-0ec3-48e3-83f9-aeca46be8bf7, !- Saturday Schedule:Day Name
  19f61bd9-0ec3-48e3-83f9-aeca46be8bf7, !- Holiday Schedule:Day Name
  19f61bd9-0ec3-48e3-83f9-aeca46be8bf7, !- SummerDesignDay Schedule:Day Name
  19f61bd9-0ec3-48e3-83f9-aeca46be8bf7, !- WinterDesignDay Schedule:Day Name
  19f61bd9-0ec3-48e3-83f9-aeca46be8bf7, !- CustomDay1 Schedule:Day Name
  19f61bd9-0ec3-48e3-83f9-aeca46be8bf7; !- CustomDay2 Schedule:Day Name

Schedule:Week:Daily, ApartmentMidRise LTG_APT_SCH_25,
  19f61bd9-0ec3-48e3-83f9-aeca46be8bf7, !- Sunday Schedule:Day Name
  19f61bd9-0ec3-48e3-83f9-aeca46be8bf7, !- Monday Schedule:Day Name
  19f61bd9-0ec3-48e3-83f9-aeca46be8bf7, !- Tuesday Schedule:Day Name
  19f61bd9-0ec3-48e3-83f9-aeca46be8bf7, !- Wednesday Schedule:Day Name
  19f61bd9-0ec3-48e3-83f9-aeca46be8bf7, !- Thursday Schedule:Day Name
  19f61bd9-0ec3-48e3-83f9-aeca46be8bf7, !- Friday Schedule:Day Name
  19f61bd9-0ec3-48e3-83f9-aeca46be8bf7, !- Saturday Schedule:Day Name
  19f61bd9-0ec3-48e3-83f9-aeca46be8bf7, !- Holiday Schedule:Day Name
  19f61bd9-0ec3-48e3-83f9-aeca46be8bf7, !- SummerDesignDay Schedule:Day Name
  19f61bd9-0ec3-48e3-83f9-aeca46be8bf7, !- WinterDesignDay Schedule:Day Name
  19f61bd9-0ec3-48e3-83f9-aeca46be8bf7, !- CustomDay1 Schedule:Day Name
  19f61bd9-0ec3-48e3-83f9-aeca46be8bf7; !- CustomDay2 Schedule:Day Name

Schedule:Week:Daily, ApartmentMidRise LTG_APT_SCH_26,
  19f61bd9-0ec3-48e3-83f9-aeca46be8bf7, !- Sunday Schedule:Day Name
  19f61bd9-0ec3-48e3-83f9-aeca46be8bf7, !- Monday Schedule:Day Name
  19f61bd9-0ec3-48e3-83f9-aeca46be8bf7, !- Tuesday Schedule:Day Name
  19f61bd9-0ec3-48e3-83f9-aeca46be8bf7, !- Wednesday Schedule:Day Name
  19f61bd9-0ec3-48e3-83f9-aeca46be8bf7, !- Thursday Schedule:Day Name
  19f61bd9-0ec3-48e3-83f9-aeca46be8bf7, !- Friday Schedule:Day Name
  19f61bd9-0ec3-48e3-83f9-aeca46be8bf7, !- Saturday Schedule:Day Name
  19f61bd9-0ec3-48e3-83f9-aeca46be8bf7, !- Holiday Schedule:Day Name
  19f61bd9-0ec3-48e3-83f9-aeca46be8bf7, !- SummerDesignDay Schedule:Day Name
  19f61bd9-0ec3-48e3-83f9-aeca46be8bf7, !- WinterDesignDay Schedule:Day Name
  19f61bd9-0ec3-48e3-83f9-aeca46be8bf7, !- CustomDay1 Schedule:Day Name
  19f61bd9-0ec3-48e3-83f9-aeca46be8bf7; !- CustomDay2 Schedule:Day Name

Schedule:Week:Daily, ApartmentMidRise LTG_APT_SCH_27,
  19f61bd9-0ec3-48e3-83f9-aeca46be8bf7, !- Sunday Schedule:Day Name
  19f61bd9-0ec3-48e3-83f9-aeca46be8bf7, !- Monday Schedule:Day Name
  19f61bd9-0ec3-48e3-83f9-aeca46be8bf7, !- Tuesday Schedule:Day Name
  19f61bd9-0ec3-48e3-83f9-aeca46be8bf7, !- Wednesday Schedule:Day Name
  19f61bd9-0ec3-48e3-83f9-aeca46be8bf7, !- Thursday Schedule:Day Name
  19f61bd9-0ec3-48e3-83f9-aeca46be8bf7, !- Friday Schedule:Day Name
  19f61bd9-0ec3-48e3-83f9-aeca46be8bf7, !- Saturday Schedule:Day Name
  19f61bd9-0ec3-48e3-83f9-aeca46be8bf7, !- Holiday Schedule:Day Name
  19f61bd9-0ec3-48e3-83f9-aeca46be8bf7, !- SummerDesignDay Schedule:Day Name
  19f61bd9-0ec3-48e3-83f9-aeca46be8bf7, !- WinterDesignDay Schedule:Day Name
  19f61bd9-0ec3-48e3-83f9-aeca46be8bf7, !- CustomDay1 Schedule:Day Name
  19f61bd9-0ec3-48e3-83f9-aeca46be8bf7; !- CustomDay2 Schedule:Day Name

Schedule:Week:Daily, ApartmentMidRise LTG_APT_SCH_28,
  19f61bd9-0ec3-48e3-83f9-aeca46be8bf7, !- Sunday Schedule:Day Name
  19f61bd9-0ec3-48e3-83f9-aeca46be8bf7, !- Monday Schedule:Day Name
  19f61bd9-0ec3-48e3-83f9-aeca46be8bf7, !- Tuesday Schedule:Day Name
  19f61bd9-0ec3-48e3-83f9-aeca46be8bf7, !- Wednesday Schedule:Day Name
  19f61bd9-0ec3-48e3-83f9-aeca46be8bf7, !- Thursday Schedule:Day Name
  19f61bd9-0ec3-48e3-83f9-aeca46be8bf7, !- Friday Schedule:Day Name
  19f61bd9-0ec3-48e3-83f9-aeca46be8bf7, !- Saturday Schedule:Day Name
  19f61bd9-0ec3-48e3-83f9-aeca46be8bf7, !- Holiday Schedule:Day Name
  19f61bd9-0ec3-48e3-83f9-aeca46be8bf7, !- SummerDesignDay Schedule:Day Name
  19f61bd9-0ec3-48e3-83f9-aeca46be8bf7, !- WinterDesignDay Schedule:Day Name
  19f61bd9-0ec3-48e3-83f9-aeca46be8bf7, !- CustomDay1 Schedule:Day Name
  19f61bd9-0ec3-48e3-83f9-aeca46be8bf7; !- CustomDay2 Schedule:Day Name

Schedule:Week:Daily, ApartmentMidRise LTG_APT_SCH_29,
  19f61bd9-0ec3-48e3-83f9-aeca46be8bf7, !- Sunday Schedule:Day Name
  19f61bd9-0ec3-48e3-83f9-aeca46be8bf7, !- Monday Schedule:Day Name
  19f61bd9-0ec3-48e3-83f9-aeca46be8bf7, !- Tuesday Schedule:Day Name
  19f61bd9-0ec3-48e3-83f9-aeca46be8bf7, !- Wednesday Schedule:Day Name
  19f61bd9-0ec3-48e3-83f9-aeca46be8bf7, !- Thursday Schedule:Day Name
  19f61bd9-0ec3-48e3-83f9-aeca46be8bf7, !- Friday Schedule:Day Name
  19f61bd9-0ec3-48e3-83f9-aeca46be8bf7, !- Saturday Schedule:Day Name
  19f61bd9-0ec3-48e3-83f9-aeca46be8bf7, !- Holiday Schedule:Day Name
  19f61bd9-0ec3-48e3-83f9-aeca46be8bf7, !- SummerDesignDay Schedule:Day Name
  19f61bd9-0ec3-48e3-83f9-aeca46be8bf7, !- WinterDesignDay Schedule:Day Name
  19f61bd9-0ec3-48e3-83f9-aeca46be8bf7, !- CustomDay1 Schedule:Day Name
  19f61bd9-0ec3-48e3-83f9-aeca46be8bf7; !- CustomDay2 Schedule:Day Name

Schedule:Week:Daily, ApartmentMidRise LTG_APT_SCH_30,
  19f61bd9-0ec3-48e3-83f9-aeca46be8bf7, !- Sunday Schedule:Day Name
  19f61bd9-0ec3-48e3-83f9-aeca46be8bf7, !- Monday Schedule:Day Name
  19f61bd9-0ec3-48e3-83f9-aeca46be8bf7, !- Tuesday Schedule:Day Name
  19f61bd9-0ec3-48e3-83f9-aeca46be8bf7, !- Wednesday Schedule:Day Name
  19f61bd9-0ec3-48e3-83f9-aeca46be8bf7, !- Thursday Schedule:Day Name
  19f61bd9-0ec3-48e3-83f9-aeca46be8bf7, !- Friday Schedule:Day Name
  19f61bd9-0ec3-48e3-83f9-aeca46be8bf7, !- Saturday Schedule:Day Name
  19f61bd9-0ec3-48e3-83f9-aeca46be8bf7, !- Holiday Schedule:Day Name
  19f61bd9-0ec3-48e3-83f9-aeca46be8bf7, !- SummerDesignDay Schedule:Day Name
  19f61bd9-0ec3-48e3-83f9-aeca46be8bf7, !- WinterDesignDay Schedule:Day Name
  19f61bd9-0ec3-48e3-83f9-aeca46be8bf7, !- CustomDay1 Schedule:Day Name
  19f61bd9-0ec3-48e3-83f9-aeca46be8bf7; !- CustomDay2 Schedule:Day Name

Schedule:Week:Daily, ApartmentMidRise LTG_APT_SCH_31,
  19f61bd9-0ec3-48e3-83f9-aeca46be8bf7, !- Sunday Schedule:Day Name
  19f61bd9-0ec3-48e3-83f9-aeca46be8bf7, !- Monday Schedule:Day Name
  19f61bd9-0ec3-48e3-83f9-aeca46be8bf7, !- Tuesday Schedule:Day Name
  19f61bd9-0ec3-48e3-83f9-aeca46be8bf7, !- Wednesday Schedule:Day Name
  19f61bd9-0ec3-48e3-83f9-aeca46be8bf7, !- Thursday Schedule:Day Name
  19f61bd9-0ec3-48e3-83f9-aeca46be8bf7, !- Friday Schedule:Day Name
  19f61bd9-0ec3-48e3-83f9-aeca46be8bf7, !- Saturday Schedule:Day Name
  19f61bd9-0ec3-48e3-83f9-aeca46be8bf7, !- Holiday Schedule:Day Name
  19f61bd9-0ec3-48e3-83f9-aeca46be8bf7, !- SummerDesignDay Schedule:Day Name
  19f61bd9-0ec3-48e3-83f9-aeca46be8bf7, !- WinterDesignDay Schedule:Day Name
  19f61bd9-0ec3-48e3-83f9-aeca46be8bf7, !- CustomDay1 Schedule:Day Name
  19f61bd9-0ec3-48e3-83f9-aeca46be8bf7; !- CustomDay2 Schedule:Day Name

Schedule:Week:Daily, ApartmentMidRise LTG_APT_SCH_32,
  19f61bd9-0ec3-48e3-83f9-aeca46be8bf7, !- Sunday Schedule:Day Name
  19f61bd9-0ec3-48e3-83f9-aeca46be8bf7, !- Monday Schedule:Day Name
  19f61bd9-0ec3-48e3-83f9-aeca46be8bf7, !- Tuesday Schedule:Day Name
  19f61bd9-0ec3-48e3-83f9-aeca46be8bf7, !- Wednesday Schedule:Day Name
  19f61bd9-0ec3-48e3-83f9-aeca46be8bf7, !- Thursday Schedule:Day Name
  19f61bd9-0ec3-48e3-83f9-aeca46be8bf7, !- Friday Schedule:Day Name
  19f61bd9-0ec3-48e3-83f9-aeca46be8bf7, !- Saturday Schedule:Day Name
  19f61bd9-0ec3-48e3-83f9-aeca46be8bf7, !- Holiday Schedule:Day Name
  19f61bd9-0ec3-48e3-83f9-aeca46be8bf7, !- SummerDesignDay Schedule:Day Name
  19f61bd9-0ec3-48e3-83f9-aeca46be8bf7, !- WinterDesignDay Schedule:Day Name
  19f61bd9-0ec3-48e3-83f9-aeca46be8bf7, !- CustomDay1 Schedule:Day Name
  19f61bd9-0ec3-48e3-83f9-aeca46be8bf7; !- CustomDay2 Schedule:Day Name

Schedule:Week:Daily, ApartmentMidRise LTG_APT_SCH_33,
  19f61bd9-0ec3-48e3-83f9-aeca46be8bf7, !- Sunday Schedule:Day Name
  19f61bd9-0ec3-48e3-83f9-aeca46be8bf7, !- Monday Schedule:Day Name
  19f61bd9-0ec3-48e3-83f9-aeca46be8bf7, !- Tuesday Schedule:Day Name
  19f61bd9-0ec3-48e3-83f9-aeca46be8bf7, !- Wednesday Schedule:Day Name
  19f61bd9-0ec3-48e3-83f9-aeca46be8bf7, !- Thursday Schedule:Day Name
  19f61bd9-0ec3-48e3-83f9-aeca46be8bf7, !- Friday Schedule:Day Name
  19f61bd9-0ec3-48e3-83f9-aeca46be8bf7, !- Saturday Schedule:Day Name
  19f61bd9-0ec3-48e3-83f9-aeca46be8bf7, !- Holiday Schedule:Day Name
  19f61bd9-0ec3-48e3-83f9-aeca46be8bf7, !- SummerDesignDay Schedule:Day Name
  19f61bd9-0ec3-48e3-83f9-aeca46be8bf7, !- WinterDesignDay Schedule:Day Name
  19f61bd9-0ec3-48e3-83f9-aeca46be8bf7, !- CustomDay1 Schedule:Day Name
  19f61bd9-0ec3-48e3-83f9-aeca46be8bf7; !- CustomDay2 Schedule:Day Name

Schedule:Week:Daily, ApartmentMidRise LTG_APT_SCH_34,
  19f61bd9-0ec3-48e3-83f9-aeca46be8bf7, !- Sunday Schedule:Day Name
  19f61bd9-0ec3-48e3-83f9-aeca46be8bf7, !- Monday Schedule:Day Name
  19f61bd9-0ec3-48e3-83f9-aeca46be8bf7, !- Tuesday Schedule:Day Name
  19f61bd9-0ec3-48e3-83f9-aeca46be8bf7, !- Wednesday Schedule:Day Name
  19f61bd9-0ec3-48e3-83f9-aeca46be8bf7, !- Thursday Schedule:Day Name
  19f61bd9-0ec3-48e3-83f9-aeca46be8bf7, !- Friday Schedule:Day Name
  19f61bd9-0ec3-48e3-83f9-aeca46be8bf7, !- Saturday Schedule:Day Name
  19f61bd9-0ec3-48e3-83f9-aeca46be8bf7, !- Holiday Schedule:Day Name
  19f61bd9-0ec3-48e3-83f9-aeca46be8bf7, !- SummerDesignDay Schedule:Day Name
  19f61bd9-0ec3-48e3-83f9-aeca46be8bf7, !- WinterDesignDay Schedule:Day Name
  19f61bd9-0ec3-48e3-83f9-aeca46be8bf7, !- CustomDay1 Schedule:Day Name
  19f61bd9-0ec3-48e3-83f9-aeca46be8bf7; !- CustomDay2 Schedule:Day Name

Schedule:Week:Daily, ApartmentMidRise LTG_APT_SCH_35,
  19f61bd9-0ec3-48e3-83f9-aeca46be8bf7, !- Sunday Schedule:Day Name
  19f61bd9-0ec3-48e3-83f9-aeca46be8bf7, !- Monday Schedule:Day Name
  19f61bd9-0ec3-48e3-83f9-aeca46be8bf7, !- Tuesday Schedule:Day Name
  19f61bd9-0ec3-48e3-83f9-aeca46be8bf7, !- Wednesday Schedule:Day Name
  19f61bd9-0ec3-48e3-83f9-aeca46be8bf7, !- Thursday Schedule:Day Name
  19f61bd9-0ec3-48e3-83f9-aeca46be8bf7, !- Friday Schedule:Day Name
  19f61bd9-0ec3-48e3-83f9-aeca46be8bf7, !- Saturday Schedule:Day Name
  19f61bd9-0ec3-48e3-83f9-aeca46be8bf7, !- Holiday Schedule:Day Name
  19f61bd9-0ec3-48e3-83f9-aeca46be8bf7, !- SummerDesignDay Schedule:Day Name
  19f61bd9-0ec3-48e3-83f9-aeca46be8bf7, !- WinterDesignDay Schedule:Day Name
  19f61bd9-0ec3-48e3-83f9-aeca46be8bf7, !- CustomDay1 Schedule:Day Name
  19f61bd9-0ec3-48e3-83f9-aeca46be8bf7; !- CustomDay2 Schedule:Day Name

Schedule:Week:Daily, ApartmentMidRise LTG_APT_SCH_36,
  19f61bd9-0ec3-48e3-83f9-aeca46be8bf7, !- Sunday Schedule:Day Name
  19f61bd9-0ec3-48e3-83f9-aeca46be8bf7, !- Monday Schedule:Day Name
  19f61bd9-0ec3-48e3-83f9-aeca46be8bf7, !- Tuesday Schedule:Day Name
  19f61bd9-0ec3-48e3-83f9-aeca46be8bf7, !- Wednesday Schedule:Day Name
  19f61bd9-0ec3-48e3-83f9-aeca46be8bf7, !- Thursday Schedule:Day Name
  19f61bd9-0ec3-48e3-83f9-aeca46be8bf7, !- Friday Schedule:Day Name
  19f61bd9-0ec3-48e3-83f9-aeca46be8bf7, !- Saturday Schedule:Day Name
  19f61bd9-0ec3-48e3-83f9-aeca46be8bf7, !- Holiday Schedule:Day Name
  19f61bd9-0ec3-48e3-83f9-aeca46be8bf7, !- SummerDesignDay Schedule:Day Name
  19f61bd9-0ec3-48e3-83f9-aeca46be8bf7, !- WinterDesignDay Schedule:Day Name
  19f61bd9-0ec3-48e3-83f9-aeca46be8bf7, !- CustomDay1 Schedule:Day Name
  19f61bd9-0ec3-48e3-83f9-aeca46be8bf7; !- CustomDay2 Schedule:Day Name

Schedule:Week:Daily, ApartmentMidRise LTG_APT_SCH_37,
  19f61bd9-0ec3-48e3-83f9-aeca46be8bf7, !- Sunday Schedule:Day Name
  19f61bd9-0ec3-48e3-83f9-aeca46be8bf7, !- Monday Schedule:Day Name
  19f61bd9-0ec3-48e3-83f9-aeca46be8bf7, !- Tuesday Schedule:Day Name
  19f61bd9-0ec3-48e3-83f9-aeca46be8bf7, !- Wednesday Schedule:Day Name
  19f61bd9-0ec3-48e3-83f9-aeca46be8bf7, !- Thursday Schedule:Day Name
  19f61bd9-0ec3-48e3-83f9-aeca46be8bf7, !- Friday Schedule:Day Name
  19f61bd9-0ec3-48e3-83f9-aeca46be8bf7, !- Saturday Schedule:Day Name
  19f61bd9-0ec3-48e3-83f9-aeca46be8bf7, !- Holiday Schedule:Day Name
  19f61bd9-0ec3-48e3-83f9-aeca46be8bf7, !- SummerDesignDay Schedule:Day Name
  19f61bd9-0ec3-48e3-83f9-aeca46be8bf7, !- WinterDesignDay Schedule:Day Name
  19f61bd9-0ec3-48e3-83f9-aeca46be8bf7, !- CustomDay1 Schedule:Day Name
  19f61bd9-0ec3-48e3-83f9-aeca46be8bf7; !- CustomDay2 Schedule:Day Name

Schedule:Week:Daily, ApartmentMidRise LTG_APT_SCH_38,
  19f61bd9-0ec3-48e3-83f9-aeca46be8bf7, !- Sunday Schedule:Day Name
  19f61bd9-0ec3-48e3-83f9-aeca46be8bf7, !- Monday Schedule:Day Name
  19f61bd9-0ec3-48e3-83f9-aeca46be8bf7, !- Tuesday Schedule:Day Name
  19f61bd9-0ec3-48e3-83f9-aeca46be8bf7, !- Wednesday Schedule:Day Name
  19f61bd9-0ec3-48e3-83f9-aeca46be8bf7, !- Thursday Schedule:Day Name
  19f61bd9-0ec3-48e3-83f9-aeca46be8bf7, !- Friday Schedule:Day Name
  19f61bd9-0ec3-48e3-83f9-aeca46be8bf7, !- Saturday Schedule:Day Name
  19f61bd9-0ec3-48e3-83f9-aeca46be8bf7, !- Holiday Schedule:Day Name
  19f61bd9-0ec3-48e3-83f9-aeca46be8bf7, !- SummerDesignDay Schedule:Day Name
  19f61bd9-0ec3-48e3-83f9-aeca46be8bf7, !- WinterDesignDay Schedule:Day Name
  19f61bd9-0ec3-48e3-83f9-aeca46be8bf7, !- CustomDay1 Schedule:Day Name
  19f61bd9-0ec3-48e3-83f9-aeca46be8bf7; !- CustomDay2 Schedule:Day Name

Schedule:Week:Daily, ApartmentMidRise LTG_APT_SCH_39,
  19f61bd9-0ec3-48e3-83f9-aeca46be8bf7, !- Sunday Schedule:Day Name
  19f61bd9-0ec3-48e3-83f9-aeca46be8bf7, !- Monday Schedule:Day Name
  19f61bd9-0ec3-48e3-83f9-aeca46be8bf7, !- Tuesday Schedule:Day Name
  19f61bd9-0ec3-48e3-83f9-aeca46be8bf7, !- Wednesday Schedule:Day Name
  19f61bd9-0ec3-48e3-83f9-aeca46be8bf7, !- Thursday Schedule:Day Name
  19f61bd9-0ec3-48e3-83f9-aeca46be8bf7, !- Friday Schedule:Day Name
  19f61bd9-0ec3-48e3-83f9-aeca46be8bf7, !- Saturday Schedule:Day Name
  19f61bd9-0ec3-48e3-83f9-aeca46be8bf7, !- Holiday Schedule:Day Name
  19f61bd9-0ec3-48e3-83f9-aeca46be8bf7, !- SummerDesignDay Schedule:Day Name
  19f61bd9-0ec3-48e3-83f9-aeca46be8bf7, !- WinterDesignDay Schedule:Day Name
  19f61bd9-0ec3-48e3-83f9-aeca46be8bf7, !- CustomDay1 Schedule:Day Name
  19f61bd9-0ec3-48e3-83f9-aeca46be8bf7; !- CustomDay2 Schedule:Day Name

Schedule:Week:Daily, ApartmentMidRise LTG_APT_SCH_40,
  19f61bd9-0ec3-48e3-83f9-aeca46be8bf7, !- Sunday Schedule:Day Name
  19f61bd9-0ec3-48e3-83f9-aeca46be8bf7, !- Monday Schedule:Day Name
  19f61bd9-0ec3-48e3-83f9-aeca46be8bf7, !- Tuesday Schedule:Day Name
  19f61bd9-0ec3-48e3-83f9-aeca46be8bf7, !- Wednesday Schedule:Day Name
  19f61bd9-0ec3-48e3-83f9-aeca46be8bf7, !- Thursday Schedule:Day Name
  19f61bd9-0ec3-48e3-83f9-aeca46be8bf7, !- Friday Schedule:Day Name
  19f61bd9-0ec3-48e3-83f9-aeca46be8bf7, !- Saturday Schedule:Day Name
  19f61bd9-0ec3-48e3-83f9-aeca46be8bf7, !- Holiday Schedule:Day Name
  19f61bd9-0ec3-48e3-83f9-aeca46be8bf7, !- SummerDesignDay Schedule:Day Name
  19f61bd9-0ec3-48e3-83f9-aeca46be8bf7, !- WinterDesignDay Schedule:Day Name
  19f61bd9-0ec3-48e3-83f9-aeca46be8bf7, !- CustomDay1 Schedule:Day Name
  19f61bd9-0ec3-48e3-83f9-aeca46be8bf7; !- CustomDay2 Schedule:Day Name

Schedule:Week:Daily, ApartmentMidRise LTG_APT_SCH_41,
  19f61bd9-0ec3-48e3-83f9-aeca46be8bf7, !- Sunday Schedule:Day Name
  19f61bd9-0ec3-48e3-83f9-aeca46be8bf7, !- Monday Schedule:Day Name
  19f61bd9-0ec3-48e3-83f9-aeca46be8bf7, !- Tuesday Schedule:Day Name
  19f61bd9-0ec3-48e3-83f9-aeca46be8bf7, !- Wednesday Schedule:Day Name
  19f61bd9-0ec3-48e3-83f9-aeca46be8bf7, !- Thursday Schedule:Day Name
  19f61bd9-0ec3-48e3-83f9-aeca46be8bf7, !- Friday Schedule:Day Name
  19f61bd9-0ec3-48e3-83f9-aeca46be8bf7, !- Saturday Schedule:Day Name
  19f61bd9-0ec3-48e3-83f9-aeca46be8bf7, !- Holiday Schedule:Day Name
  19f61bd9-0ec3-48e3-83f9-aeca46be8bf7, !- SummerDesignDay Schedule:Day Name
  19f61bd9-0ec3-48e3-83f9-aeca46be8bf7, !- WinterDesignDay Schedule:Day Name
  19f61bd9-0ec3-48e3-83f9-aeca46be8bf7, !- CustomDay1 Schedule:Day Name
  19f61bd9-0ec3-48e3-83f9-aeca46be8bf7; !- CustomDay2 Schedule:Day Name

Schedule:Week:Daily, ApartmentMidRise LTG_APT_SCH_42,
  19f61bd9-0ec3-48e3-83f9-aeca46be8bf7, !- Sunday Schedule:Day Name
  19f61bd9-0ec3-48e3-83f9-aeca46be8bf7, !- Monday Schedule:Day Name
  19f61bd9-0ec3-48e3-83f9-aeca46be8bf7, !- Tuesday Schedule:Day Name
  19f61bd9-0ec3-48e3-83f9-aeca46be8bf7, !- Wednesday Schedule:Day Name
  19f61bd9-0ec3-48e3-83f9-aeca46be8bf7, !- Thursday Schedule:Day Name
  19f61bd9-0ec3-48e3-83f9-aeca46be8bf7, !- Friday Schedule:Day Name
  19f61bd9-0ec3-48e3-83f9-aeca46be8bf7, !- Saturday Schedule:Day Name
  19f61bd9-0ec3-48e3-83f9-aeca46be8bf7, !- Holiday Schedule:Day Name
  19f61bd9-0ec3-48e3-83f9-aeca46be8bf7, !- SummerDesignDay Schedule:Day Name
  19f61bd9-0ec3-48e3-83f9-aeca46be8bf7, !- WinterDesignDay Schedule:Day Name
  19f61bd9-0ec3-48e3-83f9-aeca46be8bf7, !- CustomDay1 Schedule:Day Name
  19f61bd9-0ec3-48e3-83f9-aeca46be8bf7; !- CustomDay2 Schedule:Day Name

Schedule:Week:Daily, ApartmentMidRise LTG_APT_SCH_43,
  19f61bd9-0ec3-48e3-83f9-aeca46be8bf7, !- Sunday Schedule:Day Name
  19f61bd9-0ec3-48e3-83f9-aeca46be8bf7, !- Monday Schedule:Day Name
  19f61bd9-0ec3-48e3-83f9-aeca46be8bf7, !- Tuesday Schedule:Day Name
  19f61bd9-0ec3-48e3-83f9-aeca46be8bf7, !- Wednesday Schedule:Day Name
  19f61bd9-0ec3-48e3-83f9-aeca46be8bf7, !- Thursday Schedule:Day Name
  19f61bd9-0ec3-48e3-83f9-aeca46be8bf7, !- Friday Schedule:Day Name
  19f61bd9-0ec3-48e3-83f9-aeca46be8bf7, !- Saturday Schedule:Day Name
  19f61bd9-0ec3-48e3-83f9-aeca46be8bf7, !- Holiday Schedule:Day Name
  19f61bd9-0ec3-48e3-83f9-aeca46be8bf7, !- SummerDesignDay Schedule:Day Name
  19f61bd9-0ec3-48e3-83f9-aeca46be8bf7, !- WinterDesignDay Schedule:Day Name
  19f61bd9-0ec3-48e3-83f9-aeca46be8bf7, !- CustomDay1 Schedule:Day Name
  19f61bd9-0ec3-48e3-83f9-aeca46be8bf7; !- CustomDay2 Schedule:Day Name

Schedule:Week:Daily, ApartmentMidRise LTG_APT_SCH_44,
  19f61bd9-0ec3-48e3-83f9-aeca46be8bf7, !- Sunday Schedule:Day Name
  19f61bd9-0ec3-48e3-83f9-aeca46be8bf7, !- Monday Schedule:Day Name
  19f61bd9-0ec3-48e3-83f9-aeca46be8bf7, !- Tuesday Schedule:Day Name
  19f61bd9-0ec3-48e3-83f9-aeca46be8bf7, !- Wednesday Schedule:Day Name
  19f61bd9-0ec3-48e3-83f9-aeca46be8bf7, !- Thursday Schedule:Day Name
  19f61bd9-0ec3-48e3-83f9-aeca46be8bf7, !- Friday Schedule:Day Name
  19f61bd9-0ec3-48e3-83f9-aeca46be8bf7, !- Saturday Schedule:Day Name
  19f61bd9-0ec3-48e3-83f9-aeca46be8bf7, !- Holiday Schedule:Day Name
  19f61bd9-0ec3-48e3-83f9-aeca46be8bf7, !- SummerDesignDay Schedule:Day Name
  19f61bd9-0ec3-48e3-83f9-aeca46be8bf7, !- WinterDesignDay Schedule:Day Name
  19f61bd9-0ec3-48e3-83f9-aeca46be8bf7, !- CustomDay1 Schedule:Day Name
  19f61bd9-0ec3-48e3-83f9-aeca46be8bf7; !- CustomDay2 Schedule:Day Name

Schedule:Week:Daily, ApartmentMidRise LTG_APT_SCH_45,
  19f61bd9-0ec3-48e3-83f9-aeca46be8bf7, !- Sunday Schedule:Day Name
  19f61bd9-0ec3-48e3-83f9-aeca46be8bf7, !- Monday Schedule:Day Name
  19f61bd9-0ec3-48e3-83f9-aeca46be8bf7, !- Tuesday Schedule:Day Name
  19f61bd9-0ec3-48e3-83f9-aeca46be8bf7, !- Wednesday Schedule:Day Name
  19f61bd9-0ec3-48e3-83f9-aeca46be8bf7, !- Thursday Schedule:Day Name
  19f61bd9-0ec3-48e3-83f9-aeca46be8bf7, !- Friday Schedule:Day Name
  19f61bd9-0ec3-48e3-83f9-aeca46be8bf7, !- Saturday Schedule:Day Name
  19f61bd9-0ec3-48e3-83f9-aeca46be8bf7, !- Holiday Schedule:Day Name
  19f61bd9-0ec3-48e3-83f9-aeca46be8bf7, !- SummerDesignDay Schedule:Day Name
  19f61bd9-0ec3-48e3-83f9-aeca46be8bf7, !- WinterDesignDay Schedule:Day Name
  19f61bd9-0ec3-48e3-83f9-aeca46be8bf7, !- CustomDay1 Schedule:Day Name
  19f61bd9-0ec3-48e3-83f9-aeca46be8bf7; !- CustomDay2 Schedule:Day Name

Schedule:Week:Daily, ApartmentMidRise LTG_APT_SCH_46,
  19f61bd9-0ec3-48e3-83f9-aeca46be8bf7, !- Sunday Schedule:Day Name
  19f61bd9-0ec3-48e3-83f9-aeca46be8bf7, !- Monday Schedule:Day Name
  19f61bd9-0ec3-48e3-83f9-aeca46be8bf7, !- Tuesday Schedule:Day Name
  19f61bd9-0ec3-48e3-83f9-aeca46be8bf7, !- Wednesday Schedule:Day Name
  19f61bd9-0ec3-48e3-83f9-aeca46be8bf7, !- Thursday Schedule:Day Name
  19f61bd9-0ec3-48e3-83f9-aeca46be8bf7, !- Friday Schedule:Day Name
  19f61bd9-0ec3-48e3-83f9-aeca46be8bf7, !- Saturday Schedule:Day Name
  19f61bd9-0ec3-48e3-83f9-aeca46be8bf7, !- Holiday Schedule:Day Name
  19f61bd9-0ec3-48e3-83f9-aeca46be8bf7, !- SummerDesignDay Schedule:Day Name
  19f61bd9-0ec3-48e3-83f9-aeca46be8bf7, !- WinterDesignDay Schedule:Day Name
  19f61bd9-0ec3-48e3-83f9-aeca46be8bf7, !- CustomDay1 Schedule:Day Name
  19f61bd9-0ec3-48e3-83f9-aeca46be8bf7; !- CustomDay2 Schedule:Day Name

Schedule:Week:Daily, ApartmentMidRise LTG_APT_SCH_47,
  19f61bd9-0ec3-48e3-83f9-aeca46be8bf7, !- Sunday Schedule:Day Name
  19f61bd9-0ec3-48e3-83f9-aeca46be8bf7, !- Monday Schedule:Day Name
  19f61bd9-0ec3-48e3-83f9-aeca46be8bf7, !- Tuesday Schedule:Day Name
  19f61bd9-0ec3-48e3-83f9-aeca46be8bf7, !- Wednesday Schedule:Day Name
  19f61bd9-0ec3-48e3-83f9-aeca46be8bf7, !- Thursday Schedule:Day Name
  19f61bd9-0ec3-48e3-83f9-aeca46be8bf7, !- Friday Schedule:Day Name
  19f61bd9-0ec3-48e3-83f9-aeca46be8bf7, !- Saturday Schedule:Day Name
  19f61bd9-0ec3-48e3-83f9-aeca46be8bf7, !- Holiday Schedule:Day Name
  19f61bd9-0ec3-48e3-83f9-aeca46be8bf7, !- SummerDesignDay Schedule:Day Name
  19f61bd9-0ec3-48e3-83f9-aeca46be8bf7, !- WinterDesignDay Schedule:Day Name
  19f61bd9-0ec3-48e3-83f9-aeca46be8bf7, !- CustomDay1 Schedule:Day Name
  19f61bd9-0ec3-48e3-83f9-aeca46be8bf7; !- CustomDay2 Schedule:Day Name

Schedule:Week:Daily, ApartmentMidRise LTG_APT_SCH_48,
  19f61bd9-0ec3-48e3-83f9-aeca46be8bf7, !- Sunday Schedule:Day Name
  19f61bd9-0ec3-48e3-83f9-aeca46be8bf7, !- Monday Schedule:Day Name
  19f61bd9-0ec3-48e3-83f9-aeca46be8bf7, !- Tuesday Schedule:Day Name
  19f61bd9-0ec3-48e3-83f9-aeca46be8bf7, !- Wednesday Schedule:Day Name
  19f61bd9-0ec3-48e3-83f9-aeca46be8bf7, !- Thursday Schedule:Day Name
  19f61bd9-0ec3-48e3-83f9-aeca46be8bf7, !- Friday Schedule:Day Name
  19f61bd9-0ec3-48e3-83f9-aeca46be8bf7, !- Saturday Schedule:Day Name
  19f61bd9-0ec3-48e3-83f9-aeca46be8bf7, !- Holiday Schedule:Day Name
  19f61bd9-0ec3-48e3-83f9-aeca46be8bf7, !- SummerDesignDay Schedule:Day Name
  19f61bd9-0ec3-48e3-83f9-aeca46be8bf7, !- WinterDesignDay Schedule:Day Name
  19f61bd9-0ec3-48e3-83f9-aeca46be8bf7, !- CustomDay1 Schedule:Day Name
  19f61bd9-0ec3-48e3-83f9-aeca46be8bf7; !- CustomDay2 Schedule:Day Name

Schedule:Week:Daily, ApartmentMidRise LTG_APT_SCH_49,
  19f61bd9-0ec3-48e3-83f9-aeca46be8bf7, !- Sunday Schedule:Day Name
  19f61bd9-0ec3-48e3-83f9-aeca46be8bf7, !- Monday Schedule:Day Name
  19f61bd9-0ec3-48e3-83f9-aeca46be8bf7, !- Tuesday Schedule:Day Name
  19f61bd9-0ec3-48e3-83f9-aeca46be8bf7, !- Wednesday Schedule:Day Name
  19f61bd9-0ec3-48e3-83f9-aeca46be8bf7, !- Thursday Schedule:Day Name
  19f61bd9-0ec3-48e3-83f9-aeca46be8bf7, !- Friday Schedule:Day Name
  19f61bd9-0ec3-48e3-83f9-aeca46be8bf7, !- Saturday Schedule:Day Name
  19f61bd9-0ec3-48e3-83f9-aeca46be8bf7, !- Holiday Schedule:Day Name
  19f61bd9-0ec3-48e3-83f9-aeca46be8bf7, !- SummerDesignDay Schedule:Day Name
  19f61bd9-0ec3-48e3-83f9-aeca46be8bf7, !- WinterDesignDay Schedule:Day Name
  19f61bd9-0ec3-48e3-83f9-aeca46be8bf7, !- CustomDay1 Schedule:Day Name
  19f61bd9-0ec3-48e3-83f9-aeca46be8bf7; !- CustomDay2 Schedule:Day Name

Schedule:Week:Daily, ApartmentMidRise LTG_APT_SCH_50,
  19f61bd9-0ec3-48e3-83f9-aeca46be8bf7, !- Sunday Schedule:Day Name
  19f61bd9-0ec3-48e3-83f9-aeca46be8bf7, !- Monday Schedule:Day Name
  19f61bd9-0ec3-48e3-83f9-aeca46be8bf7, !- Tuesday Schedule:Day Name
  19f61bd9-0ec3-48e3-83f9-aeca46be8bf7, !- Wednesday Schedule:Day Name
  19f61bd9-0ec3-48e3-83f9-aeca46be8bf7, !- Thursday Schedule:Day Name
  19f61bd9-0ec3-48e3-83f9-aeca46be8bf7, !- Friday Schedule:Day Name
  19f61bd9-0ec3-48e3-83f9-aeca46be8bf7, !- Saturday Schedule:Day Name
  19f61bd9-0ec3-48e3-83f9-aeca46be8bf7, !- Holiday Schedule:Day Name
  19f61bd9-0ec3-48e3-83f9-aeca46be8bf7, !- SummerDesignDay Schedule:Day Name
  19f61bd9-0ec3-48e3-83f9-aeca46be8bf7, !- WinterDesignDay Schedule:Day Name
  19f61bd9-0ec3-48e3-83f9-aeca46be8bf7, !- CustomDay1 Schedule:Day Name
  19f61bd9-0ec3-48e3-83f9-aeca46be8bf7; !- CustomDay2 Schedule:Day Name

Schedule:Week:Daily, ApartmentMidRise LTG_APT_SCH_51,
  19f61bd9-0ec3-48e3-83f9-aeca46be8bf7, !- Sunday Schedule:Day Name
  19f61bd9-0ec3-48e3-83f9-aeca46be8bf7, !- Monday Schedule:Day Name
  19f61bd9-0ec3-48e3-83f9-aeca46be8bf7, !- Tuesday Schedule:Day Name
  19f61bd9-0ec3-48e3-83f9-aeca46be8bf7, !- Wednesday Schedule:Day Name
  19f61bd9-0ec3-48e3-83f9-aeca46be8bf7, !- Thursday Schedule:Day Name
  19f61bd9-0ec3-48e3-83f9-aeca46be8bf7, !- Friday Schedule:Day Name
  19f61bd9-0ec3-48e3-83f9-aeca46be8bf7, !- Saturday Schedule:Day Name
  19f61bd9-0ec3-48e3-83f9-aeca46be8bf7, !- Holiday Schedule:Day Name
  19f61bd9-0ec3-48e3-83f9-aeca46be8bf7, !- SummerDesignDay Schedule:Day Name
  19f61bd9-0ec3-48e3-83f9-aeca46be8bf7, !- WinterDesignDay Schedule:Day Name
  19f61bd9-0ec3-48e3-83f9-aeca46be8bf7, !- CustomDay1 Schedule:Day Name
  19f61bd9-0ec3-48e3-83f9-aeca46be8bf7; !- CustomDay2 Schedule:Day Name

Schedule:Week:Daily, ApartmentMidRise LTG_APT_SCH_52,
  19f61bd9-0ec3-48e3-83f9-aeca46be8bf7, !- Sunday Schedule:Day Name
  19f61bd9-0ec3-48e3-83f9-aeca46be8bf7, !- Monday Schedule:Day Name
  19f61bd9-0ec3-48e3-83f9-aeca46be8bf7, !- Tuesday Schedule:Day Name
  19f61bd9-0ec3-48e3-83f9-aeca46be8bf7, !- Wednesday Schedule:Day Name
  19f61bd9-0ec3-48e3-83f9-aeca46be8bf7, !- Thursday Schedule:Day Name
  19f61bd9-0ec3-48e3-83f9-aeca46be8bf7, !- Friday Schedule:Day Name
  19f61bd9-0ec3-48e3-83f9-aeca46be8bf7, !- Saturday Schedule:Day Name
  19f61bd9-0ec3-48e3-83f9-aeca46be8bf7, !- Holiday Schedule:Day Name
  19f61bd9-0ec3-48e3-83f9-aeca46be8bf7, !- SummerDesignDay Schedule:Day Name
  19f61bd9-0ec3-48e3-83f9-aeca46be8bf7, !- WinterDesignDay Schedule:Day Name
  19f61bd9-0ec3-48e3-83f9-aeca46be8bf7, !- CustomDay1 Schedule:Day Name
  19f61bd9-0ec3-48e3-83f9-aeca46be8bf7; !- CustomDay2 Schedule:Day Name


Schedule:Year,ApartmentMidRise EQP_APT_SCH,
Fraction,
ApartmentMidRise EQP_APT_SCH_0,1,1,1,7, 
ApartmentMidRise EQP_APT_SCH_1,1,8,1,14, 
ApartmentMidRise EQP_APT_SCH_2,1,15,1,21, 
ApartmentMidRise EQP_APT_SCH_3,1,22,1,28, 
ApartmentMidRise EQP_APT_SCH_4,1,29,2,4, 
ApartmentMidRise EQP_APT_SCH_5,2,5,2,11, 
ApartmentMidRise EQP_APT_SCH_6,2,12,2,18, 
ApartmentMidRise EQP_APT_SCH_7,2,19,2,25, 
ApartmentMidRise EQP_APT_SCH_8,2,26,3,4, 
ApartmentMidRise EQP_APT_SCH_9,3,5,3,11, 
ApartmentMidRise EQP_APT_SCH_10,3,12,3,18, 
ApartmentMidRise EQP_APT_SCH_11,3,19,3,25, 
ApartmentMidRise EQP_APT_SCH_12,3,26,4,1, 
ApartmentMidRise EQP_APT_SCH_13,4,2,4,8, 
ApartmentMidRise EQP_APT_SCH_14,4,9,4,15, 
ApartmentMidRise EQP_APT_SCH_15,4,16,4,22, 
ApartmentMidRise EQP_APT_SCH_16,4,23,4,29, 
ApartmentMidRise EQP_APT_SCH_17,4,30,5,6, 
ApartmentMidRise EQP_APT_SCH_18,5,7,5,13, 
ApartmentMidRise EQP_APT_SCH_19,5,14,5,20, 
ApartmentMidRise EQP_APT_SCH_20,5,21,5,27, 
ApartmentMidRise EQP_APT_SCH_21,5,28,6,3, 
ApartmentMidRise EQP_APT_SCH_22,6,4,6,10, 
ApartmentMidRise EQP_APT_SCH_23,6,11,6,17, 
ApartmentMidRise EQP_APT_SCH_24,6,18,6,24, 
ApartmentMidRise EQP_APT_SCH_25,6,25,7,1, 
ApartmentMidRise EQP_APT_SCH_26,7,2,7,8, 
ApartmentMidRise EQP_APT_SCH_27,7,9,7,15, 
ApartmentMidRise EQP_APT_SCH_28,7,16,7,22, 
ApartmentMidRise EQP_APT_SCH_29,7,23,7,29, 
ApartmentMidRise EQP_APT_SCH_30,7,30,8,5, 
ApartmentMidRise EQP_APT_SCH_31,8,6,8,12, 
ApartmentMidRise EQP_APT_SCH_32,8,13,8,19, 
ApartmentMidRise EQP_APT_SCH_33,8,20,8,26, 
ApartmentMidRise EQP_APT_SCH_34,8,27,9,2, 
ApartmentMidRise EQP_APT_SCH_35,9,3,9,9, 
ApartmentMidRise EQP_APT_SCH_36,9,10,9,16, 
ApartmentMidRise EQP_APT_SCH_37,9,17,9,23, 
ApartmentMidRise EQP_APT_SCH_38,9,24,9,30, 
ApartmentMidRise EQP_APT_SCH_39,10,1,10,7, 
ApartmentMidRise EQP_APT_SCH_40,10,8,10,14, 
ApartmentMidRise EQP_APT_SCH_41,10,15,10,21, 
ApartmentMidRise EQP_APT_SCH_42,10,22,10,28, 
ApartmentMidRise EQP_APT_SCH_43,10,29,11,4, 
ApartmentMidRise EQP_APT_SCH_44,11,5,11,11, 
ApartmentMidRise EQP_APT_SCH_45,11,12,11,18, 
ApartmentMidRise EQP_APT_SCH_46,11,19,11,25, 
ApartmentMidRise EQP_APT_SCH_47,11,26,12,2, 
ApartmentMidRise EQP_APT_SCH_48,12,3,12,9, 
ApartmentMidRise EQP_APT_SCH_49,12,10,12,16, 
ApartmentMidRise EQP_APT_SCH_50,12,17,12,23, 
ApartmentMidRise EQP_APT_SCH_51,12,24,12,30, 
ApartmentMidRise EQP_APT_SCH_52,12,31,12,31;

Schedule:Week:Daily, ApartmentMidRise EQP_APT_SCH_0,
  a5c0b2b1-e3e4-40e0-8530-c138ddb1abe4, !- Sunday Schedule:Day Name
  a5c0b2b1-e3e4-40e0-8530-c138ddb1abe4, !- Monday Schedule:Day Name
  a5c0b2b1-e3e4-40e0-8530-c138ddb1abe4, !- Tuesday Schedule:Day Name
  a5c0b2b1-e3e4-40e0-8530-c138ddb1abe4, !- Wednesday Schedule:Day Name
  a5c0b2b1-e3e4-40e0-8530-c138ddb1abe4, !- Thursday Schedule:Day Name
  a5c0b2b1-e3e4-40e0-8530-c138ddb1abe4, !- Friday Schedule:Day Name
  a5c0b2b1-e3e4-40e0-8530-c138ddb1abe4, !- Saturday Schedule:Day Name
  a5c0b2b1-e3e4-40e0-8530-c138ddb1abe4, !- Holiday Schedule:Day Name
  a5c0b2b1-e3e4-40e0-8530-c138ddb1abe4, !- SummerDesignDay Schedule:Day Name
  a5c0b2b1-e3e4-40e0-8530-c138ddb1abe4, !- WinterDesignDay Schedule:Day Name
  a5c0b2b1-e3e4-40e0-8530-c138ddb1abe4, !- CustomDay1 Schedule:Day Name
  a5c0b2b1-e3e4-40e0-8530-c138ddb1abe4; !- CustomDay2 Schedule:Day Name

Schedule:Week:Daily, ApartmentMidRise EQP_APT_SCH_1,
  a5c0b2b1-e3e4-40e0-8530-c138ddb1abe4, !- Sunday Schedule:Day Name
  a5c0b2b1-e3e4-40e0-8530-c138ddb1abe4, !- Monday Schedule:Day Name
  a5c0b2b1-e3e4-40e0-8530-c138ddb1abe4, !- Tuesday Schedule:Day Name
  a5c0b2b1-e3e4-40e0-8530-c138ddb1abe4, !- Wednesday Schedule:Day Name
  a5c0b2b1-e3e4-40e0-8530-c138ddb1abe4, !- Thursday Schedule:Day Name
  a5c0b2b1-e3e4-40e0-8530-c138ddb1abe4, !- Friday Schedule:Day Name
  a5c0b2b1-e3e4-40e0-8530-c138ddb1abe4, !- Saturday Schedule:Day Name
  a5c0b2b1-e3e4-40e0-8530-c138ddb1abe4, !- Holiday Schedule:Day Name
  a5c0b2b1-e3e4-40e0-8530-c138ddb1abe4, !- SummerDesignDay Schedule:Day Name
  a5c0b2b1-e3e4-40e0-8530-c138ddb1abe4, !- WinterDesignDay Schedule:Day Name
  a5c0b2b1-e3e4-40e0-8530-c138ddb1abe4, !- CustomDay1 Schedule:Day Name
  a5c0b2b1-e3e4-40e0-8530-c138ddb1abe4; !- CustomDay2 Schedule:Day Name

Schedule:Week:Daily, ApartmentMidRise EQP_APT_SCH_2,
  a5c0b2b1-e3e4-40e0-8530-c138ddb1abe4, !- Sunday Schedule:Day Name
  a5c0b2b1-e3e4-40e0-8530-c138ddb1abe4, !- Monday Schedule:Day Name
  a5c0b2b1-e3e4-40e0-8530-c138ddb1abe4, !- Tuesday Schedule:Day Name
  a5c0b2b1-e3e4-40e0-8530-c138ddb1abe4, !- Wednesday Schedule:Day Name
  a5c0b2b1-e3e4-40e0-8530-c138ddb1abe4, !- Thursday Schedule:Day Name
  a5c0b2b1-e3e4-40e0-8530-c138ddb1abe4, !- Friday Schedule:Day Name
  a5c0b2b1-e3e4-40e0-8530-c138ddb1abe4, !- Saturday Schedule:Day Name
  a5c0b2b1-e3e4-40e0-8530-c138ddb1abe4, !- Holiday Schedule:Day Name
  a5c0b2b1-e3e4-40e0-8530-c138ddb1abe4, !- SummerDesignDay Schedule:Day Name
  a5c0b2b1-e3e4-40e0-8530-c138ddb1abe4, !- WinterDesignDay Schedule:Day Name
  a5c0b2b1-e3e4-40e0-8530-c138ddb1abe4, !- CustomDay1 Schedule:Day Name
  a5c0b2b1-e3e4-40e0-8530-c138ddb1abe4; !- CustomDay2 Schedule:Day Name

Schedule:Week:Daily, ApartmentMidRise EQP_APT_SCH_3,
  a5c0b2b1-e3e4-40e0-8530-c138ddb1abe4, !- Sunday Schedule:Day Name
  a5c0b2b1-e3e4-40e0-8530-c138ddb1abe4, !- Monday Schedule:Day Name
  a5c0b2b1-e3e4-40e0-8530-c138ddb1abe4, !- Tuesday Schedule:Day Name
  a5c0b2b1-e3e4-40e0-8530-c138ddb1abe4, !- Wednesday Schedule:Day Name
  a5c0b2b1-e3e4-40e0-8530-c138ddb1abe4, !- Thursday Schedule:Day Name
  a5c0b2b1-e3e4-40e0-8530-c138ddb1abe4, !- Friday Schedule:Day Name
  a5c0b2b1-e3e4-40e0-8530-c138ddb1abe4, !- Saturday Schedule:Day Name
  a5c0b2b1-e3e4-40e0-8530-c138ddb1abe4, !- Holiday Schedule:Day Name
  a5c0b2b1-e3e4-40e0-8530-c138ddb1abe4, !- SummerDesignDay Schedule:Day Name
  a5c0b2b1-e3e4-40e0-8530-c138ddb1abe4, !- WinterDesignDay Schedule:Day Name
  a5c0b2b1-e3e4-40e0-8530-c138ddb1abe4, !- CustomDay1 Schedule:Day Name
  a5c0b2b1-e3e4-40e0-8530-c138ddb1abe4; !- CustomDay2 Schedule:Day Name

Schedule:Week:Daily, ApartmentMidRise EQP_APT_SCH_4,
  a5c0b2b1-e3e4-40e0-8530-c138ddb1abe4, !- Sunday Schedule:Day Name
  a5c0b2b1-e3e4-40e0-8530-c138ddb1abe4, !- Monday Schedule:Day Name
  a5c0b2b1-e3e4-40e0-8530-c138ddb1abe4, !- Tuesday Schedule:Day Name
  a5c0b2b1-e3e4-40e0-8530-c138ddb1abe4, !- Wednesday Schedule:Day Name
  a5c0b2b1-e3e4-40e0-8530-c138ddb1abe4, !- Thursday Schedule:Day Name
  a5c0b2b1-e3e4-40e0-8530-c138ddb1abe4, !- Friday Schedule:Day Name
  a5c0b2b1-e3e4-40e0-8530-c138ddb1abe4, !- Saturday Schedule:Day Name
  a5c0b2b1-e3e4-40e0-8530-c138ddb1abe4, !- Holiday Schedule:Day Name
  a5c0b2b1-e3e4-40e0-8530-c138ddb1abe4, !- SummerDesignDay Schedule:Day Name
  a5c0b2b1-e3e4-40e0-8530-c138ddb1abe4, !- WinterDesignDay Schedule:Day Name
  a5c0b2b1-e3e4-40e0-8530-c138ddb1abe4, !- CustomDay1 Schedule:Day Name
  a5c0b2b1-e3e4-40e0-8530-c138ddb1abe4; !- CustomDay2 Schedule:Day Name

Schedule:Week:Daily, ApartmentMidRise EQP_APT_SCH_5,
  a5c0b2b1-e3e4-40e0-8530-c138ddb1abe4, !- Sunday Schedule:Day Name
  a5c0b2b1-e3e4-40e0-8530-c138ddb1abe4, !- Monday Schedule:Day Name
  a5c0b2b1-e3e4-40e0-8530-c138ddb1abe4, !- Tuesday Schedule:Day Name
  a5c0b2b1-e3e4-40e0-8530-c138ddb1abe4, !- Wednesday Schedule:Day Name
  a5c0b2b1-e3e4-40e0-8530-c138ddb1abe4, !- Thursday Schedule:Day Name
  a5c0b2b1-e3e4-40e0-8530-c138ddb1abe4, !- Friday Schedule:Day Name
  a5c0b2b1-e3e4-40e0-8530-c138ddb1abe4, !- Saturday Schedule:Day Name
  a5c0b2b1-e3e4-40e0-8530-c138ddb1abe4, !- Holiday Schedule:Day Name
  a5c0b2b1-e3e4-40e0-8530-c138ddb1abe4, !- SummerDesignDay Schedule:Day Name
  a5c0b2b1-e3e4-40e0-8530-c138ddb1abe4, !- WinterDesignDay Schedule:Day Name
  a5c0b2b1-e3e4-40e0-8530-c138ddb1abe4, !- CustomDay1 Schedule:Day Name
  a5c0b2b1-e3e4-40e0-8530-c138ddb1abe4; !- CustomDay2 Schedule:Day Name

Schedule:Week:Daily, ApartmentMidRise EQP_APT_SCH_6,
  a5c0b2b1-e3e4-40e0-8530-c138ddb1abe4, !- Sunday Schedule:Day Name
  a5c0b2b1-e3e4-40e0-8530-c138ddb1abe4, !- Monday Schedule:Day Name
  a5c0b2b1-e3e4-40e0-8530-c138ddb1abe4, !- Tuesday Schedule:Day Name
  a5c0b2b1-e3e4-40e0-8530-c138ddb1abe4, !- Wednesday Schedule:Day Name
  a5c0b2b1-e3e4-40e0-8530-c138ddb1abe4, !- Thursday Schedule:Day Name
  a5c0b2b1-e3e4-40e0-8530-c138ddb1abe4, !- Friday Schedule:Day Name
  a5c0b2b1-e3e4-40e0-8530-c138ddb1abe4, !- Saturday Schedule:Day Name
  a5c0b2b1-e3e4-40e0-8530-c138ddb1abe4, !- Holiday Schedule:Day Name
  a5c0b2b1-e3e4-40e0-8530-c138ddb1abe4, !- SummerDesignDay Schedule:Day Name
  a5c0b2b1-e3e4-40e0-8530-c138ddb1abe4, !- WinterDesignDay Schedule:Day Name
  a5c0b2b1-e3e4-40e0-8530-c138ddb1abe4, !- CustomDay1 Schedule:Day Name
  a5c0b2b1-e3e4-40e0-8530-c138ddb1abe4; !- CustomDay2 Schedule:Day Name

Schedule:Week:Daily, ApartmentMidRise EQP_APT_SCH_7,
  a5c0b2b1-e3e4-40e0-8530-c138ddb1abe4, !- Sunday Schedule:Day Name
  a5c0b2b1-e3e4-40e0-8530-c138ddb1abe4, !- Monday Schedule:Day Name
  a5c0b2b1-e3e4-40e0-8530-c138ddb1abe4, !- Tuesday Schedule:Day Name
  a5c0b2b1-e3e4-40e0-8530-c138ddb1abe4, !- Wednesday Schedule:Day Name
  a5c0b2b1-e3e4-40e0-8530-c138ddb1abe4, !- Thursday Schedule:Day Name
  a5c0b2b1-e3e4-40e0-8530-c138ddb1abe4, !- Friday Schedule:Day Name
  a5c0b2b1-e3e4-40e0-8530-c138ddb1abe4, !- Saturday Schedule:Day Name
  a5c0b2b1-e3e4-40e0-8530-c138ddb1abe4, !- Holiday Schedule:Day Name
  a5c0b2b1-e3e4-40e0-8530-c138ddb1abe4, !- SummerDesignDay Schedule:Day Name
  a5c0b2b1-e3e4-40e0-8530-c138ddb1abe4, !- WinterDesignDay Schedule:Day Name
  a5c0b2b1-e3e4-40e0-8530-c138ddb1abe4, !- CustomDay1 Schedule:Day Name
  a5c0b2b1-e3e4-40e0-8530-c138ddb1abe4; !- CustomDay2 Schedule:Day Name

Schedule:Week:Daily, ApartmentMidRise EQP_APT_SCH_8,
  a5c0b2b1-e3e4-40e0-8530-c138ddb1abe4, !- Sunday Schedule:Day Name
  a5c0b2b1-e3e4-40e0-8530-c138ddb1abe4, !- Monday Schedule:Day Name
  a5c0b2b1-e3e4-40e0-8530-c138ddb1abe4, !- Tuesday Schedule:Day Name
  a5c0b2b1-e3e4-40e0-8530-c138ddb1abe4, !- Wednesday Schedule:Day Name
  a5c0b2b1-e3e4-40e0-8530-c138ddb1abe4, !- Thursday Schedule:Day Name
  a5c0b2b1-e3e4-40e0-8530-c138ddb1abe4, !- Friday Schedule:Day Name
  a5c0b2b1-e3e4-40e0-8530-c138ddb1abe4, !- Saturday Schedule:Day Name
  a5c0b2b1-e3e4-40e0-8530-c138ddb1abe4, !- Holiday Schedule:Day Name
  a5c0b2b1-e3e4-40e0-8530-c138ddb1abe4, !- SummerDesignDay Schedule:Day Name
  a5c0b2b1-e3e4-40e0-8530-c138ddb1abe4, !- WinterDesignDay Schedule:Day Name
  a5c0b2b1-e3e4-40e0-8530-c138ddb1abe4, !- CustomDay1 Schedule:Day Name
  a5c0b2b1-e3e4-40e0-8530-c138ddb1abe4; !- CustomDay2 Schedule:Day Name

Schedule:Week:Daily, ApartmentMidRise EQP_APT_SCH_9,
  a5c0b2b1-e3e4-40e0-8530-c138ddb1abe4, !- Sunday Schedule:Day Name
  a5c0b2b1-e3e4-40e0-8530-c138ddb1abe4, !- Monday Schedule:Day Name
  a5c0b2b1-e3e4-40e0-8530-c138ddb1abe4, !- Tuesday Schedule:Day Name
  a5c0b2b1-e3e4-40e0-8530-c138ddb1abe4, !- Wednesday Schedule:Day Name
  a5c0b2b1-e3e4-40e0-8530-c138ddb1abe4, !- Thursday Schedule:Day Name
  a5c0b2b1-e3e4-40e0-8530-c138ddb1abe4, !- Friday Schedule:Day Name
  a5c0b2b1-e3e4-40e0-8530-c138ddb1abe4, !- Saturday Schedule:Day Name
  a5c0b2b1-e3e4-40e0-8530-c138ddb1abe4, !- Holiday Schedule:Day Name
  a5c0b2b1-e3e4-40e0-8530-c138ddb1abe4, !- SummerDesignDay Schedule:Day Name
  a5c0b2b1-e3e4-40e0-8530-c138ddb1abe4, !- WinterDesignDay Schedule:Day Name
  a5c0b2b1-e3e4-40e0-8530-c138ddb1abe4, !- CustomDay1 Schedule:Day Name
  a5c0b2b1-e3e4-40e0-8530-c138ddb1abe4; !- CustomDay2 Schedule:Day Name

Schedule:Week:Daily, ApartmentMidRise EQP_APT_SCH_10,
  a5c0b2b1-e3e4-40e0-8530-c138ddb1abe4, !- Sunday Schedule:Day Name
  a5c0b2b1-e3e4-40e0-8530-c138ddb1abe4, !- Monday Schedule:Day Name
  a5c0b2b1-e3e4-40e0-8530-c138ddb1abe4, !- Tuesday Schedule:Day Name
  a5c0b2b1-e3e4-40e0-8530-c138ddb1abe4, !- Wednesday Schedule:Day Name
  a5c0b2b1-e3e4-40e0-8530-c138ddb1abe4, !- Thursday Schedule:Day Name
  a5c0b2b1-e3e4-40e0-8530-c138ddb1abe4, !- Friday Schedule:Day Name
  a5c0b2b1-e3e4-40e0-8530-c138ddb1abe4, !- Saturday Schedule:Day Name
  a5c0b2b1-e3e4-40e0-8530-c138ddb1abe4, !- Holiday Schedule:Day Name
  a5c0b2b1-e3e4-40e0-8530-c138ddb1abe4, !- SummerDesignDay Schedule:Day Name
  a5c0b2b1-e3e4-40e0-8530-c138ddb1abe4, !- WinterDesignDay Schedule:Day Name
  a5c0b2b1-e3e4-40e0-8530-c138ddb1abe4, !- CustomDay1 Schedule:Day Name
  a5c0b2b1-e3e4-40e0-8530-c138ddb1abe4; !- CustomDay2 Schedule:Day Name

Schedule:Week:Daily, ApartmentMidRise EQP_APT_SCH_11,
  a5c0b2b1-e3e4-40e0-8530-c138ddb1abe4, !- Sunday Schedule:Day Name
  a5c0b2b1-e3e4-40e0-8530-c138ddb1abe4, !- Monday Schedule:Day Name
  a5c0b2b1-e3e4-40e0-8530-c138ddb1abe4, !- Tuesday Schedule:Day Name
  a5c0b2b1-e3e4-40e0-8530-c138ddb1abe4, !- Wednesday Schedule:Day Name
  a5c0b2b1-e3e4-40e0-8530-c138ddb1abe4, !- Thursday Schedule:Day Name
  a5c0b2b1-e3e4-40e0-8530-c138ddb1abe4, !- Friday Schedule:Day Name
  a5c0b2b1-e3e4-40e0-8530-c138ddb1abe4, !- Saturday Schedule:Day Name
  a5c0b2b1-e3e4-40e0-8530-c138ddb1abe4, !- Holiday Schedule:Day Name
  a5c0b2b1-e3e4-40e0-8530-c138ddb1abe4, !- SummerDesignDay Schedule:Day Name
  a5c0b2b1-e3e4-40e0-8530-c138ddb1abe4, !- WinterDesignDay Schedule:Day Name
  a5c0b2b1-e3e4-40e0-8530-c138ddb1abe4, !- CustomDay1 Schedule:Day Name
  a5c0b2b1-e3e4-40e0-8530-c138ddb1abe4; !- CustomDay2 Schedule:Day Name

Schedule:Week:Daily, ApartmentMidRise EQP_APT_SCH_12,
  a5c0b2b1-e3e4-40e0-8530-c138ddb1abe4, !- Sunday Schedule:Day Name
  a5c0b2b1-e3e4-40e0-8530-c138ddb1abe4, !- Monday Schedule:Day Name
  a5c0b2b1-e3e4-40e0-8530-c138ddb1abe4, !- Tuesday Schedule:Day Name
  a5c0b2b1-e3e4-40e0-8530-c138ddb1abe4, !- Wednesday Schedule:Day Name
  a5c0b2b1-e3e4-40e0-8530-c138ddb1abe4, !- Thursday Schedule:Day Name
  a5c0b2b1-e3e4-40e0-8530-c138ddb1abe4, !- Friday Schedule:Day Name
  a5c0b2b1-e3e4-40e0-8530-c138ddb1abe4, !- Saturday Schedule:Day Name
  a5c0b2b1-e3e4-40e0-8530-c138ddb1abe4, !- Holiday Schedule:Day Name
  a5c0b2b1-e3e4-40e0-8530-c138ddb1abe4, !- SummerDesignDay Schedule:Day Name
  a5c0b2b1-e3e4-40e0-8530-c138ddb1abe4, !- WinterDesignDay Schedule:Day Name
  a5c0b2b1-e3e4-40e0-8530-c138ddb1abe4, !- CustomDay1 Schedule:Day Name
  a5c0b2b1-e3e4-40e0-8530-c138ddb1abe4; !- CustomDay2 Schedule:Day Name

Schedule:Week:Daily, ApartmentMidRise EQP_APT_SCH_13,
  a5c0b2b1-e3e4-40e0-8530-c138ddb1abe4, !- Sunday Schedule:Day Name
  a5c0b2b1-e3e4-40e0-8530-c138ddb1abe4, !- Monday Schedule:Day Name
  a5c0b2b1-e3e4-40e0-8530-c138ddb1abe4, !- Tuesday Schedule:Day Name
  a5c0b2b1-e3e4-40e0-8530-c138ddb1abe4, !- Wednesday Schedule:Day Name
  a5c0b2b1-e3e4-40e0-8530-c138ddb1abe4, !- Thursday Schedule:Day Name
  a5c0b2b1-e3e4-40e0-8530-c138ddb1abe4, !- Friday Schedule:Day Name
  a5c0b2b1-e3e4-40e0-8530-c138ddb1abe4, !- Saturday Schedule:Day Name
  a5c0b2b1-e3e4-40e0-8530-c138ddb1abe4, !- Holiday Schedule:Day Name
  a5c0b2b1-e3e4-40e0-8530-c138ddb1abe4, !- SummerDesignDay Schedule:Day Name
  a5c0b2b1-e3e4-40e0-8530-c138ddb1abe4, !- WinterDesignDay Schedule:Day Name
  a5c0b2b1-e3e4-40e0-8530-c138ddb1abe4, !- CustomDay1 Schedule:Day Name
  a5c0b2b1-e3e4-40e0-8530-c138ddb1abe4; !- CustomDay2 Schedule:Day Name

Schedule:Week:Daily, ApartmentMidRise EQP_APT_SCH_14,
  a5c0b2b1-e3e4-40e0-8530-c138ddb1abe4, !- Sunday Schedule:Day Name
  a5c0b2b1-e3e4-40e0-8530-c138ddb1abe4, !- Monday Schedule:Day Name
  a5c0b2b1-e3e4-40e0-8530-c138ddb1abe4, !- Tuesday Schedule:Day Name
  a5c0b2b1-e3e4-40e0-8530-c138ddb1abe4, !- Wednesday Schedule:Day Name
  a5c0b2b1-e3e4-40e0-8530-c138ddb1abe4, !- Thursday Schedule:Day Name
  a5c0b2b1-e3e4-40e0-8530-c138ddb1abe4, !- Friday Schedule:Day Name
  a5c0b2b1-e3e4-40e0-8530-c138ddb1abe4, !- Saturday Schedule:Day Name
  a5c0b2b1-e3e4-40e0-8530-c138ddb1abe4, !- Holiday Schedule:Day Name
  a5c0b2b1-e3e4-40e0-8530-c138ddb1abe4, !- SummerDesignDay Schedule:Day Name
  a5c0b2b1-e3e4-40e0-8530-c138ddb1abe4, !- WinterDesignDay Schedule:Day Name
  a5c0b2b1-e3e4-40e0-8530-c138ddb1abe4, !- CustomDay1 Schedule:Day Name
  a5c0b2b1-e3e4-40e0-8530-c138ddb1abe4; !- CustomDay2 Schedule:Day Name

Schedule:Week:Daily, ApartmentMidRise EQP_APT_SCH_15,
  a5c0b2b1-e3e4-40e0-8530-c138ddb1abe4, !- Sunday Schedule:Day Name
  a5c0b2b1-e3e4-40e0-8530-c138ddb1abe4, !- Monday Schedule:Day Name
  a5c0b2b1-e3e4-40e0-8530-c138ddb1abe4, !- Tuesday Schedule:Day Name
  a5c0b2b1-e3e4-40e0-8530-c138ddb1abe4, !- Wednesday Schedule:Day Name
  a5c0b2b1-e3e4-40e0-8530-c138ddb1abe4, !- Thursday Schedule:Day Name
  a5c0b2b1-e3e4-40e0-8530-c138ddb1abe4, !- Friday Schedule:Day Name
  a5c0b2b1-e3e4-40e0-8530-c138ddb1abe4, !- Saturday Schedule:Day Name
  a5c0b2b1-e3e4-40e0-8530-c138ddb1abe4, !- Holiday Schedule:Day Name
  a5c0b2b1-e3e4-40e0-8530-c138ddb1abe4, !- SummerDesignDay Schedule:Day Name
  a5c0b2b1-e3e4-40e0-8530-c138ddb1abe4, !- WinterDesignDay Schedule:Day Name
  a5c0b2b1-e3e4-40e0-8530-c138ddb1abe4, !- CustomDay1 Schedule:Day Name
  a5c0b2b1-e3e4-40e0-8530-c138ddb1abe4; !- CustomDay2 Schedule:Day Name

Schedule:Week:Daily, ApartmentMidRise EQP_APT_SCH_16,
  a5c0b2b1-e3e4-40e0-8530-c138ddb1abe4, !- Sunday Schedule:Day Name
  a5c0b2b1-e3e4-40e0-8530-c138ddb1abe4, !- Monday Schedule:Day Name
  a5c0b2b1-e3e4-40e0-8530-c138ddb1abe4, !- Tuesday Schedule:Day Name
  a5c0b2b1-e3e4-40e0-8530-c138ddb1abe4, !- Wednesday Schedule:Day Name
  a5c0b2b1-e3e4-40e0-8530-c138ddb1abe4, !- Thursday Schedule:Day Name
  a5c0b2b1-e3e4-40e0-8530-c138ddb1abe4, !- Friday Schedule:Day Name
  a5c0b2b1-e3e4-40e0-8530-c138ddb1abe4, !- Saturday Schedule:Day Name
  a5c0b2b1-e3e4-40e0-8530-c138ddb1abe4, !- Holiday Schedule:Day Name
  a5c0b2b1-e3e4-40e0-8530-c138ddb1abe4, !- SummerDesignDay Schedule:Day Name
  a5c0b2b1-e3e4-40e0-8530-c138ddb1abe4, !- WinterDesignDay Schedule:Day Name
  a5c0b2b1-e3e4-40e0-8530-c138ddb1abe4, !- CustomDay1 Schedule:Day Name
  a5c0b2b1-e3e4-40e0-8530-c138ddb1abe4; !- CustomDay2 Schedule:Day Name

Schedule:Week:Daily, ApartmentMidRise EQP_APT_SCH_17,
  a5c0b2b1-e3e4-40e0-8530-c138ddb1abe4, !- Sunday Schedule:Day Name
  a5c0b2b1-e3e4-40e0-8530-c138ddb1abe4, !- Monday Schedule:Day Name
  a5c0b2b1-e3e4-40e0-8530-c138ddb1abe4, !- Tuesday Schedule:Day Name
  a5c0b2b1-e3e4-40e0-8530-c138ddb1abe4, !- Wednesday Schedule:Day Name
  a5c0b2b1-e3e4-40e0-8530-c138ddb1abe4, !- Thursday Schedule:Day Name
  a5c0b2b1-e3e4-40e0-8530-c138ddb1abe4, !- Friday Schedule:Day Name
  a5c0b2b1-e3e4-40e0-8530-c138ddb1abe4, !- Saturday Schedule:Day Name
  a5c0b2b1-e3e4-40e0-8530-c138ddb1abe4, !- Holiday Schedule:Day Name
  a5c0b2b1-e3e4-40e0-8530-c138ddb1abe4, !- SummerDesignDay Schedule:Day Name
  a5c0b2b1-e3e4-40e0-8530-c138ddb1abe4, !- WinterDesignDay Schedule:Day Name
  a5c0b2b1-e3e4-40e0-8530-c138ddb1abe4, !- CustomDay1 Schedule:Day Name
  a5c0b2b1-e3e4-40e0-8530-c138ddb1abe4; !- CustomDay2 Schedule:Day Name

Schedule:Week:Daily, ApartmentMidRise EQP_APT_SCH_18,
  a5c0b2b1-e3e4-40e0-8530-c138ddb1abe4, !- Sunday Schedule:Day Name
  a5c0b2b1-e3e4-40e0-8530-c138ddb1abe4, !- Monday Schedule:Day Name
  a5c0b2b1-e3e4-40e0-8530-c138ddb1abe4, !- Tuesday Schedule:Day Name
  a5c0b2b1-e3e4-40e0-8530-c138ddb1abe4, !- Wednesday Schedule:Day Name
  a5c0b2b1-e3e4-40e0-8530-c138ddb1abe4, !- Thursday Schedule:Day Name
  a5c0b2b1-e3e4-40e0-8530-c138ddb1abe4, !- Friday Schedule:Day Name
  a5c0b2b1-e3e4-40e0-8530-c138ddb1abe4, !- Saturday Schedule:Day Name
  a5c0b2b1-e3e4-40e0-8530-c138ddb1abe4, !- Holiday Schedule:Day Name
  a5c0b2b1-e3e4-40e0-8530-c138ddb1abe4, !- SummerDesignDay Schedule:Day Name
  a5c0b2b1-e3e4-40e0-8530-c138ddb1abe4, !- WinterDesignDay Schedule:Day Name
  a5c0b2b1-e3e4-40e0-8530-c138ddb1abe4, !- CustomDay1 Schedule:Day Name
  a5c0b2b1-e3e4-40e0-8530-c138ddb1abe4; !- CustomDay2 Schedule:Day Name

Schedule:Week:Daily, ApartmentMidRise EQP_APT_SCH_19,
  a5c0b2b1-e3e4-40e0-8530-c138ddb1abe4, !- Sunday Schedule:Day Name
  a5c0b2b1-e3e4-40e0-8530-c138ddb1abe4, !- Monday Schedule:Day Name
  a5c0b2b1-e3e4-40e0-8530-c138ddb1abe4, !- Tuesday Schedule:Day Name
  a5c0b2b1-e3e4-40e0-8530-c138ddb1abe4, !- Wednesday Schedule:Day Name
  a5c0b2b1-e3e4-40e0-8530-c138ddb1abe4, !- Thursday Schedule:Day Name
  a5c0b2b1-e3e4-40e0-8530-c138ddb1abe4, !- Friday Schedule:Day Name
  a5c0b2b1-e3e4-40e0-8530-c138ddb1abe4, !- Saturday Schedule:Day Name
  a5c0b2b1-e3e4-40e0-8530-c138ddb1abe4, !- Holiday Schedule:Day Name
  a5c0b2b1-e3e4-40e0-8530-c138ddb1abe4, !- SummerDesignDay Schedule:Day Name
  a5c0b2b1-e3e4-40e0-8530-c138ddb1abe4, !- WinterDesignDay Schedule:Day Name
  a5c0b2b1-e3e4-40e0-8530-c138ddb1abe4, !- CustomDay1 Schedule:Day Name
  a5c0b2b1-e3e4-40e0-8530-c138ddb1abe4; !- CustomDay2 Schedule:Day Name

Schedule:Week:Daily, ApartmentMidRise EQP_APT_SCH_20,
  a5c0b2b1-e3e4-40e0-8530-c138ddb1abe4, !- Sunday Schedule:Day Name
  a5c0b2b1-e3e4-40e0-8530-c138ddb1abe4, !- Monday Schedule:Day Name
  a5c0b2b1-e3e4-40e0-8530-c138ddb1abe4, !- Tuesday Schedule:Day Name
  a5c0b2b1-e3e4-40e0-8530-c138ddb1abe4, !- Wednesday Schedule:Day Name
  a5c0b2b1-e3e4-40e0-8530-c138ddb1abe4, !- Thursday Schedule:Day Name
  a5c0b2b1-e3e4-40e0-8530-c138ddb1abe4, !- Friday Schedule:Day Name
  a5c0b2b1-e3e4-40e0-8530-c138ddb1abe4, !- Saturday Schedule:Day Name
  a5c0b2b1-e3e4-40e0-8530-c138ddb1abe4, !- Holiday Schedule:Day Name
  a5c0b2b1-e3e4-40e0-8530-c138ddb1abe4, !- SummerDesignDay Schedule:Day Name
  a5c0b2b1-e3e4-40e0-8530-c138ddb1abe4, !- WinterDesignDay Schedule:Day Name
  a5c0b2b1-e3e4-40e0-8530-c138ddb1abe4, !- CustomDay1 Schedule:Day Name
  a5c0b2b1-e3e4-40e0-8530-c138ddb1abe4; !- CustomDay2 Schedule:Day Name

Schedule:Week:Daily, ApartmentMidRise EQP_APT_SCH_21,
  a5c0b2b1-e3e4-40e0-8530-c138ddb1abe4, !- Sunday Schedule:Day Name
  a5c0b2b1-e3e4-40e0-8530-c138ddb1abe4, !- Monday Schedule:Day Name
  a5c0b2b1-e3e4-40e0-8530-c138ddb1abe4, !- Tuesday Schedule:Day Name
  a5c0b2b1-e3e4-40e0-8530-c138ddb1abe4, !- Wednesday Schedule:Day Name
  a5c0b2b1-e3e4-40e0-8530-c138ddb1abe4, !- Thursday Schedule:Day Name
  a5c0b2b1-e3e4-40e0-8530-c138ddb1abe4, !- Friday Schedule:Day Name
  a5c0b2b1-e3e4-40e0-8530-c138ddb1abe4, !- Saturday Schedule:Day Name
  a5c0b2b1-e3e4-40e0-8530-c138ddb1abe4, !- Holiday Schedule:Day Name
  a5c0b2b1-e3e4-40e0-8530-c138ddb1abe4, !- SummerDesignDay Schedule:Day Name
  a5c0b2b1-e3e4-40e0-8530-c138ddb1abe4, !- WinterDesignDay Schedule:Day Name
  a5c0b2b1-e3e4-40e0-8530-c138ddb1abe4, !- CustomDay1 Schedule:Day Name
  a5c0b2b1-e3e4-40e0-8530-c138ddb1abe4; !- CustomDay2 Schedule:Day Name

Schedule:Week:Daily, ApartmentMidRise EQP_APT_SCH_22,
  a5c0b2b1-e3e4-40e0-8530-c138ddb1abe4, !- Sunday Schedule:Day Name
  a5c0b2b1-e3e4-40e0-8530-c138ddb1abe4, !- Monday Schedule:Day Name
  a5c0b2b1-e3e4-40e0-8530-c138ddb1abe4, !- Tuesday Schedule:Day Name
  a5c0b2b1-e3e4-40e0-8530-c138ddb1abe4, !- Wednesday Schedule:Day Name
  a5c0b2b1-e3e4-40e0-8530-c138ddb1abe4, !- Thursday Schedule:Day Name
  a5c0b2b1-e3e4-40e0-8530-c138ddb1abe4, !- Friday Schedule:Day Name
  a5c0b2b1-e3e4-40e0-8530-c138ddb1abe4, !- Saturday Schedule:Day Name
  a5c0b2b1-e3e4-40e0-8530-c138ddb1abe4, !- Holiday Schedule:Day Name
  a5c0b2b1-e3e4-40e0-8530-c138ddb1abe4, !- SummerDesignDay Schedule:Day Name
  a5c0b2b1-e3e4-40e0-8530-c138ddb1abe4, !- WinterDesignDay Schedule:Day Name
  a5c0b2b1-e3e4-40e0-8530-c138ddb1abe4, !- CustomDay1 Schedule:Day Name
  a5c0b2b1-e3e4-40e0-8530-c138ddb1abe4; !- CustomDay2 Schedule:Day Name

Schedule:Week:Daily, ApartmentMidRise EQP_APT_SCH_23,
  a5c0b2b1-e3e4-40e0-8530-c138ddb1abe4, !- Sunday Schedule:Day Name
  a5c0b2b1-e3e4-40e0-8530-c138ddb1abe4, !- Monday Schedule:Day Name
  a5c0b2b1-e3e4-40e0-8530-c138ddb1abe4, !- Tuesday Schedule:Day Name
  a5c0b2b1-e3e4-40e0-8530-c138ddb1abe4, !- Wednesday Schedule:Day Name
  a5c0b2b1-e3e4-40e0-8530-c138ddb1abe4, !- Thursday Schedule:Day Name
  a5c0b2b1-e3e4-40e0-8530-c138ddb1abe4, !- Friday Schedule:Day Name
  a5c0b2b1-e3e4-40e0-8530-c138ddb1abe4, !- Saturday Schedule:Day Name
  a5c0b2b1-e3e4-40e0-8530-c138ddb1abe4, !- Holiday Schedule:Day Name
  a5c0b2b1-e3e4-40e0-8530-c138ddb1abe4, !- SummerDesignDay Schedule:Day Name
  a5c0b2b1-e3e4-40e0-8530-c138ddb1abe4, !- WinterDesignDay Schedule:Day Name
  a5c0b2b1-e3e4-40e0-8530-c138ddb1abe4, !- CustomDay1 Schedule:Day Name
  a5c0b2b1-e3e4-40e0-8530-c138ddb1abe4; !- CustomDay2 Schedule:Day Name

Schedule:Week:Daily, ApartmentMidRise EQP_APT_SCH_24,
  a5c0b2b1-e3e4-40e0-8530-c138ddb1abe4, !- Sunday Schedule:Day Name
  a5c0b2b1-e3e4-40e0-8530-c138ddb1abe4, !- Monday Schedule:Day Name
  a5c0b2b1-e3e4-40e0-8530-c138ddb1abe4, !- Tuesday Schedule:Day Name
  a5c0b2b1-e3e4-40e0-8530-c138ddb1abe4, !- Wednesday Schedule:Day Name
  a5c0b2b1-e3e4-40e0-8530-c138ddb1abe4, !- Thursday Schedule:Day Name
  a5c0b2b1-e3e4-40e0-8530-c138ddb1abe4, !- Friday Schedule:Day Name
  a5c0b2b1-e3e4-40e0-8530-c138ddb1abe4, !- Saturday Schedule:Day Name
  a5c0b2b1-e3e4-40e0-8530-c138ddb1abe4, !- Holiday Schedule:Day Name
  a5c0b2b1-e3e4-40e0-8530-c138ddb1abe4, !- SummerDesignDay Schedule:Day Name
  a5c0b2b1-e3e4-40e0-8530-c138ddb1abe4, !- WinterDesignDay Schedule:Day Name
  a5c0b2b1-e3e4-40e0-8530-c138ddb1abe4, !- CustomDay1 Schedule:Day Name
  a5c0b2b1-e3e4-40e0-8530-c138ddb1abe4; !- CustomDay2 Schedule:Day Name

Schedule:Week:Daily, ApartmentMidRise EQP_APT_SCH_25,
  a5c0b2b1-e3e4-40e0-8530-c138ddb1abe4, !- Sunday Schedule:Day Name
  a5c0b2b1-e3e4-40e0-8530-c138ddb1abe4, !- Monday Schedule:Day Name
  a5c0b2b1-e3e4-40e0-8530-c138ddb1abe4, !- Tuesday Schedule:Day Name
  a5c0b2b1-e3e4-40e0-8530-c138ddb1abe4, !- Wednesday Schedule:Day Name
  a5c0b2b1-e3e4-40e0-8530-c138ddb1abe4, !- Thursday Schedule:Day Name
  a5c0b2b1-e3e4-40e0-8530-c138ddb1abe4, !- Friday Schedule:Day Name
  a5c0b2b1-e3e4-40e0-8530-c138ddb1abe4, !- Saturday Schedule:Day Name
  a5c0b2b1-e3e4-40e0-8530-c138ddb1abe4, !- Holiday Schedule:Day Name
  a5c0b2b1-e3e4-40e0-8530-c138ddb1abe4, !- SummerDesignDay Schedule:Day Name
  a5c0b2b1-e3e4-40e0-8530-c138ddb1abe4, !- WinterDesignDay Schedule:Day Name
  a5c0b2b1-e3e4-40e0-8530-c138ddb1abe4, !- CustomDay1 Schedule:Day Name
  a5c0b2b1-e3e4-40e0-8530-c138ddb1abe4; !- CustomDay2 Schedule:Day Name

Schedule:Week:Daily, ApartmentMidRise EQP_APT_SCH_26,
  a5c0b2b1-e3e4-40e0-8530-c138ddb1abe4, !- Sunday Schedule:Day Name
  a5c0b2b1-e3e4-40e0-8530-c138ddb1abe4, !- Monday Schedule:Day Name
  a5c0b2b1-e3e4-40e0-8530-c138ddb1abe4, !- Tuesday Schedule:Day Name
  a5c0b2b1-e3e4-40e0-8530-c138ddb1abe4, !- Wednesday Schedule:Day Name
  a5c0b2b1-e3e4-40e0-8530-c138ddb1abe4, !- Thursday Schedule:Day Name
  a5c0b2b1-e3e4-40e0-8530-c138ddb1abe4, !- Friday Schedule:Day Name
  a5c0b2b1-e3e4-40e0-8530-c138ddb1abe4, !- Saturday Schedule:Day Name
  a5c0b2b1-e3e4-40e0-8530-c138ddb1abe4, !- Holiday Schedule:Day Name
  a5c0b2b1-e3e4-40e0-8530-c138ddb1abe4, !- SummerDesignDay Schedule:Day Name
  a5c0b2b1-e3e4-40e0-8530-c138ddb1abe4, !- WinterDesignDay Schedule:Day Name
  a5c0b2b1-e3e4-40e0-8530-c138ddb1abe4, !- CustomDay1 Schedule:Day Name
  a5c0b2b1-e3e4-40e0-8530-c138ddb1abe4; !- CustomDay2 Schedule:Day Name

Schedule:Week:Daily, ApartmentMidRise EQP_APT_SCH_27,
  a5c0b2b1-e3e4-40e0-8530-c138ddb1abe4, !- Sunday Schedule:Day Name
  a5c0b2b1-e3e4-40e0-8530-c138ddb1abe4, !- Monday Schedule:Day Name
  a5c0b2b1-e3e4-40e0-8530-c138ddb1abe4, !- Tuesday Schedule:Day Name
  a5c0b2b1-e3e4-40e0-8530-c138ddb1abe4, !- Wednesday Schedule:Day Name
  a5c0b2b1-e3e4-40e0-8530-c138ddb1abe4, !- Thursday Schedule:Day Name
  a5c0b2b1-e3e4-40e0-8530-c138ddb1abe4, !- Friday Schedule:Day Name
  a5c0b2b1-e3e4-40e0-8530-c138ddb1abe4, !- Saturday Schedule:Day Name
  a5c0b2b1-e3e4-40e0-8530-c138ddb1abe4, !- Holiday Schedule:Day Name
  a5c0b2b1-e3e4-40e0-8530-c138ddb1abe4, !- SummerDesignDay Schedule:Day Name
  a5c0b2b1-e3e4-40e0-8530-c138ddb1abe4, !- WinterDesignDay Schedule:Day Name
  a5c0b2b1-e3e4-40e0-8530-c138ddb1abe4, !- CustomDay1 Schedule:Day Name
  a5c0b2b1-e3e4-40e0-8530-c138ddb1abe4; !- CustomDay2 Schedule:Day Name

Schedule:Week:Daily, ApartmentMidRise EQP_APT_SCH_28,
  a5c0b2b1-e3e4-40e0-8530-c138ddb1abe4, !- Sunday Schedule:Day Name
  a5c0b2b1-e3e4-40e0-8530-c138ddb1abe4, !- Monday Schedule:Day Name
  a5c0b2b1-e3e4-40e0-8530-c138ddb1abe4, !- Tuesday Schedule:Day Name
  a5c0b2b1-e3e4-40e0-8530-c138ddb1abe4, !- Wednesday Schedule:Day Name
  a5c0b2b1-e3e4-40e0-8530-c138ddb1abe4, !- Thursday Schedule:Day Name
  a5c0b2b1-e3e4-40e0-8530-c138ddb1abe4, !- Friday Schedule:Day Name
  a5c0b2b1-e3e4-40e0-8530-c138ddb1abe4, !- Saturday Schedule:Day Name
  a5c0b2b1-e3e4-40e0-8530-c138ddb1abe4, !- Holiday Schedule:Day Name
  a5c0b2b1-e3e4-40e0-8530-c138ddb1abe4, !- SummerDesignDay Schedule:Day Name
  a5c0b2b1-e3e4-40e0-8530-c138ddb1abe4, !- WinterDesignDay Schedule:Day Name
  a5c0b2b1-e3e4-40e0-8530-c138ddb1abe4, !- CustomDay1 Schedule:Day Name
  a5c0b2b1-e3e4-40e0-8530-c138ddb1abe4; !- CustomDay2 Schedule:Day Name

Schedule:Week:Daily, ApartmentMidRise EQP_APT_SCH_29,
  a5c0b2b1-e3e4-40e0-8530-c138ddb1abe4, !- Sunday Schedule:Day Name
  a5c0b2b1-e3e4-40e0-8530-c138ddb1abe4, !- Monday Schedule:Day Name
  a5c0b2b1-e3e4-40e0-8530-c138ddb1abe4, !- Tuesday Schedule:Day Name
  a5c0b2b1-e3e4-40e0-8530-c138ddb1abe4, !- Wednesday Schedule:Day Name
  a5c0b2b1-e3e4-40e0-8530-c138ddb1abe4, !- Thursday Schedule:Day Name
  a5c0b2b1-e3e4-40e0-8530-c138ddb1abe4, !- Friday Schedule:Day Name
  a5c0b2b1-e3e4-40e0-8530-c138ddb1abe4, !- Saturday Schedule:Day Name
  a5c0b2b1-e3e4-40e0-8530-c138ddb1abe4, !- Holiday Schedule:Day Name
  a5c0b2b1-e3e4-40e0-8530-c138ddb1abe4, !- SummerDesignDay Schedule:Day Name
  a5c0b2b1-e3e4-40e0-8530-c138ddb1abe4, !- WinterDesignDay Schedule:Day Name
  a5c0b2b1-e3e4-40e0-8530-c138ddb1abe4, !- CustomDay1 Schedule:Day Name
  a5c0b2b1-e3e4-40e0-8530-c138ddb1abe4; !- CustomDay2 Schedule:Day Name

Schedule:Week:Daily, ApartmentMidRise EQP_APT_SCH_30,
  a5c0b2b1-e3e4-40e0-8530-c138ddb1abe4, !- Sunday Schedule:Day Name
  a5c0b2b1-e3e4-40e0-8530-c138ddb1abe4, !- Monday Schedule:Day Name
  a5c0b2b1-e3e4-40e0-8530-c138ddb1abe4, !- Tuesday Schedule:Day Name
  a5c0b2b1-e3e4-40e0-8530-c138ddb1abe4, !- Wednesday Schedule:Day Name
  a5c0b2b1-e3e4-40e0-8530-c138ddb1abe4, !- Thursday Schedule:Day Name
  a5c0b2b1-e3e4-40e0-8530-c138ddb1abe4, !- Friday Schedule:Day Name
  a5c0b2b1-e3e4-40e0-8530-c138ddb1abe4, !- Saturday Schedule:Day Name
  a5c0b2b1-e3e4-40e0-8530-c138ddb1abe4, !- Holiday Schedule:Day Name
  a5c0b2b1-e3e4-40e0-8530-c138ddb1abe4, !- SummerDesignDay Schedule:Day Name
  a5c0b2b1-e3e4-40e0-8530-c138ddb1abe4, !- WinterDesignDay Schedule:Day Name
  a5c0b2b1-e3e4-40e0-8530-c138ddb1abe4, !- CustomDay1 Schedule:Day Name
  a5c0b2b1-e3e4-40e0-8530-c138ddb1abe4; !- CustomDay2 Schedule:Day Name

Schedule:Week:Daily, ApartmentMidRise EQP_APT_SCH_31,
  a5c0b2b1-e3e4-40e0-8530-c138ddb1abe4, !- Sunday Schedule:Day Name
  a5c0b2b1-e3e4-40e0-8530-c138ddb1abe4, !- Monday Schedule:Day Name
  a5c0b2b1-e3e4-40e0-8530-c138ddb1abe4, !- Tuesday Schedule:Day Name
  a5c0b2b1-e3e4-40e0-8530-c138ddb1abe4, !- Wednesday Schedule:Day Name
  a5c0b2b1-e3e4-40e0-8530-c138ddb1abe4, !- Thursday Schedule:Day Name
  a5c0b2b1-e3e4-40e0-8530-c138ddb1abe4, !- Friday Schedule:Day Name
  a5c0b2b1-e3e4-40e0-8530-c138ddb1abe4, !- Saturday Schedule:Day Name
  a5c0b2b1-e3e4-40e0-8530-c138ddb1abe4, !- Holiday Schedule:Day Name
  a5c0b2b1-e3e4-40e0-8530-c138ddb1abe4, !- SummerDesignDay Schedule:Day Name
  a5c0b2b1-e3e4-40e0-8530-c138ddb1abe4, !- WinterDesignDay Schedule:Day Name
  a5c0b2b1-e3e4-40e0-8530-c138ddb1abe4, !- CustomDay1 Schedule:Day Name
  a5c0b2b1-e3e4-40e0-8530-c138ddb1abe4; !- CustomDay2 Schedule:Day Name

Schedule:Week:Daily, ApartmentMidRise EQP_APT_SCH_32,
  a5c0b2b1-e3e4-40e0-8530-c138ddb1abe4, !- Sunday Schedule:Day Name
  a5c0b2b1-e3e4-40e0-8530-c138ddb1abe4, !- Monday Schedule:Day Name
  a5c0b2b1-e3e4-40e0-8530-c138ddb1abe4, !- Tuesday Schedule:Day Name
  a5c0b2b1-e3e4-40e0-8530-c138ddb1abe4, !- Wednesday Schedule:Day Name
  a5c0b2b1-e3e4-40e0-8530-c138ddb1abe4, !- Thursday Schedule:Day Name
  a5c0b2b1-e3e4-40e0-8530-c138ddb1abe4, !- Friday Schedule:Day Name
  a5c0b2b1-e3e4-40e0-8530-c138ddb1abe4, !- Saturday Schedule:Day Name
  a5c0b2b1-e3e4-40e0-8530-c138ddb1abe4, !- Holiday Schedule:Day Name
  a5c0b2b1-e3e4-40e0-8530-c138ddb1abe4, !- SummerDesignDay Schedule:Day Name
  a5c0b2b1-e3e4-40e0-8530-c138ddb1abe4, !- WinterDesignDay Schedule:Day Name
  a5c0b2b1-e3e4-40e0-8530-c138ddb1abe4, !- CustomDay1 Schedule:Day Name
  a5c0b2b1-e3e4-40e0-8530-c138ddb1abe4; !- CustomDay2 Schedule:Day Name

Schedule:Week:Daily, ApartmentMidRise EQP_APT_SCH_33,
  a5c0b2b1-e3e4-40e0-8530-c138ddb1abe4, !- Sunday Schedule:Day Name
  a5c0b2b1-e3e4-40e0-8530-c138ddb1abe4, !- Monday Schedule:Day Name
  a5c0b2b1-e3e4-40e0-8530-c138ddb1abe4, !- Tuesday Schedule:Day Name
  a5c0b2b1-e3e4-40e0-8530-c138ddb1abe4, !- Wednesday Schedule:Day Name
  a5c0b2b1-e3e4-40e0-8530-c138ddb1abe4, !- Thursday Schedule:Day Name
  a5c0b2b1-e3e4-40e0-8530-c138ddb1abe4, !- Friday Schedule:Day Name
  a5c0b2b1-e3e4-40e0-8530-c138ddb1abe4, !- Saturday Schedule:Day Name
  a5c0b2b1-e3e4-40e0-8530-c138ddb1abe4, !- Holiday Schedule:Day Name
  a5c0b2b1-e3e4-40e0-8530-c138ddb1abe4, !- SummerDesignDay Schedule:Day Name
  a5c0b2b1-e3e4-40e0-8530-c138ddb1abe4, !- WinterDesignDay Schedule:Day Name
  a5c0b2b1-e3e4-40e0-8530-c138ddb1abe4, !- CustomDay1 Schedule:Day Name
  a5c0b2b1-e3e4-40e0-8530-c138ddb1abe4; !- CustomDay2 Schedule:Day Name

Schedule:Week:Daily, ApartmentMidRise EQP_APT_SCH_34,
  a5c0b2b1-e3e4-40e0-8530-c138ddb1abe4, !- Sunday Schedule:Day Name
  a5c0b2b1-e3e4-40e0-8530-c138ddb1abe4, !- Monday Schedule:Day Name
  a5c0b2b1-e3e4-40e0-8530-c138ddb1abe4, !- Tuesday Schedule:Day Name
  a5c0b2b1-e3e4-40e0-8530-c138ddb1abe4, !- Wednesday Schedule:Day Name
  a5c0b2b1-e3e4-40e0-8530-c138ddb1abe4, !- Thursday Schedule:Day Name
  a5c0b2b1-e3e4-40e0-8530-c138ddb1abe4, !- Friday Schedule:Day Name
  a5c0b2b1-e3e4-40e0-8530-c138ddb1abe4, !- Saturday Schedule:Day Name
  a5c0b2b1-e3e4-40e0-8530-c138ddb1abe4, !- Holiday Schedule:Day Name
  a5c0b2b1-e3e4-40e0-8530-c138ddb1abe4, !- SummerDesignDay Schedule:Day Name
  a5c0b2b1-e3e4-40e0-8530-c138ddb1abe4, !- WinterDesignDay Schedule:Day Name
  a5c0b2b1-e3e4-40e0-8530-c138ddb1abe4, !- CustomDay1 Schedule:Day Name
  a5c0b2b1-e3e4-40e0-8530-c138ddb1abe4; !- CustomDay2 Schedule:Day Name

Schedule:Week:Daily, ApartmentMidRise EQP_APT_SCH_35,
  a5c0b2b1-e3e4-40e0-8530-c138ddb1abe4, !- Sunday Schedule:Day Name
  a5c0b2b1-e3e4-40e0-8530-c138ddb1abe4, !- Monday Schedule:Day Name
  a5c0b2b1-e3e4-40e0-8530-c138ddb1abe4, !- Tuesday Schedule:Day Name
  a5c0b2b1-e3e4-40e0-8530-c138ddb1abe4, !- Wednesday Schedule:Day Name
  a5c0b2b1-e3e4-40e0-8530-c138ddb1abe4, !- Thursday Schedule:Day Name
  a5c0b2b1-e3e4-40e0-8530-c138ddb1abe4, !- Friday Schedule:Day Name
  a5c0b2b1-e3e4-40e0-8530-c138ddb1abe4, !- Saturday Schedule:Day Name
  a5c0b2b1-e3e4-40e0-8530-c138ddb1abe4, !- Holiday Schedule:Day Name
  a5c0b2b1-e3e4-40e0-8530-c138ddb1abe4, !- SummerDesignDay Schedule:Day Name
  a5c0b2b1-e3e4-40e0-8530-c138ddb1abe4, !- WinterDesignDay Schedule:Day Name
  a5c0b2b1-e3e4-40e0-8530-c138ddb1abe4, !- CustomDay1 Schedule:Day Name
  a5c0b2b1-e3e4-40e0-8530-c138ddb1abe4; !- CustomDay2 Schedule:Day Name

Schedule:Week:Daily, ApartmentMidRise EQP_APT_SCH_36,
  a5c0b2b1-e3e4-40e0-8530-c138ddb1abe4, !- Sunday Schedule:Day Name
  a5c0b2b1-e3e4-40e0-8530-c138ddb1abe4, !- Monday Schedule:Day Name
  a5c0b2b1-e3e4-40e0-8530-c138ddb1abe4, !- Tuesday Schedule:Day Name
  a5c0b2b1-e3e4-40e0-8530-c138ddb1abe4, !- Wednesday Schedule:Day Name
  a5c0b2b1-e3e4-40e0-8530-c138ddb1abe4, !- Thursday Schedule:Day Name
  a5c0b2b1-e3e4-40e0-8530-c138ddb1abe4, !- Friday Schedule:Day Name
  a5c0b2b1-e3e4-40e0-8530-c138ddb1abe4, !- Saturday Schedule:Day Name
  a5c0b2b1-e3e4-40e0-8530-c138ddb1abe4, !- Holiday Schedule:Day Name
  a5c0b2b1-e3e4-40e0-8530-c138ddb1abe4, !- SummerDesignDay Schedule:Day Name
  a5c0b2b1-e3e4-40e0-8530-c138ddb1abe4, !- WinterDesignDay Schedule:Day Name
  a5c0b2b1-e3e4-40e0-8530-c138ddb1abe4, !- CustomDay1 Schedule:Day Name
  a5c0b2b1-e3e4-40e0-8530-c138ddb1abe4; !- CustomDay2 Schedule:Day Name

Schedule:Week:Daily, ApartmentMidRise EQP_APT_SCH_37,
  a5c0b2b1-e3e4-40e0-8530-c138ddb1abe4, !- Sunday Schedule:Day Name
  a5c0b2b1-e3e4-40e0-8530-c138ddb1abe4, !- Monday Schedule:Day Name
  a5c0b2b1-e3e4-40e0-8530-c138ddb1abe4, !- Tuesday Schedule:Day Name
  a5c0b2b1-e3e4-40e0-8530-c138ddb1abe4, !- Wednesday Schedule:Day Name
  a5c0b2b1-e3e4-40e0-8530-c138ddb1abe4, !- Thursday Schedule:Day Name
  a5c0b2b1-e3e4-40e0-8530-c138ddb1abe4, !- Friday Schedule:Day Name
  a5c0b2b1-e3e4-40e0-8530-c138ddb1abe4, !- Saturday Schedule:Day Name
  a5c0b2b1-e3e4-40e0-8530-c138ddb1abe4, !- Holiday Schedule:Day Name
  a5c0b2b1-e3e4-40e0-8530-c138ddb1abe4, !- SummerDesignDay Schedule:Day Name
  a5c0b2b1-e3e4-40e0-8530-c138ddb1abe4, !- WinterDesignDay Schedule:Day Name
  a5c0b2b1-e3e4-40e0-8530-c138ddb1abe4, !- CustomDay1 Schedule:Day Name
  a5c0b2b1-e3e4-40e0-8530-c138ddb1abe4; !- CustomDay2 Schedule:Day Name

Schedule:Week:Daily, ApartmentMidRise EQP_APT_SCH_38,
  a5c0b2b1-e3e4-40e0-8530-c138ddb1abe4, !- Sunday Schedule:Day Name
  a5c0b2b1-e3e4-40e0-8530-c138ddb1abe4, !- Monday Schedule:Day Name
  a5c0b2b1-e3e4-40e0-8530-c138ddb1abe4, !- Tuesday Schedule:Day Name
  a5c0b2b1-e3e4-40e0-8530-c138ddb1abe4, !- Wednesday Schedule:Day Name
  a5c0b2b1-e3e4-40e0-8530-c138ddb1abe4, !- Thursday Schedule:Day Name
  a5c0b2b1-e3e4-40e0-8530-c138ddb1abe4, !- Friday Schedule:Day Name
  a5c0b2b1-e3e4-40e0-8530-c138ddb1abe4, !- Saturday Schedule:Day Name
  a5c0b2b1-e3e4-40e0-8530-c138ddb1abe4, !- Holiday Schedule:Day Name
  a5c0b2b1-e3e4-40e0-8530-c138ddb1abe4, !- SummerDesignDay Schedule:Day Name
  a5c0b2b1-e3e4-40e0-8530-c138ddb1abe4, !- WinterDesignDay Schedule:Day Name
  a5c0b2b1-e3e4-40e0-8530-c138ddb1abe4, !- CustomDay1 Schedule:Day Name
  a5c0b2b1-e3e4-40e0-8530-c138ddb1abe4; !- CustomDay2 Schedule:Day Name

Schedule:Week:Daily, ApartmentMidRise EQP_APT_SCH_39,
  a5c0b2b1-e3e4-40e0-8530-c138ddb1abe4, !- Sunday Schedule:Day Name
  a5c0b2b1-e3e4-40e0-8530-c138ddb1abe4, !- Monday Schedule:Day Name
  a5c0b2b1-e3e4-40e0-8530-c138ddb1abe4, !- Tuesday Schedule:Day Name
  a5c0b2b1-e3e4-40e0-8530-c138ddb1abe4, !- Wednesday Schedule:Day Name
  a5c0b2b1-e3e4-40e0-8530-c138ddb1abe4, !- Thursday Schedule:Day Name
  a5c0b2b1-e3e4-40e0-8530-c138ddb1abe4, !- Friday Schedule:Day Name
  a5c0b2b1-e3e4-40e0-8530-c138ddb1abe4, !- Saturday Schedule:Day Name
  a5c0b2b1-e3e4-40e0-8530-c138ddb1abe4, !- Holiday Schedule:Day Name
  a5c0b2b1-e3e4-40e0-8530-c138ddb1abe4, !- SummerDesignDay Schedule:Day Name
  a5c0b2b1-e3e4-40e0-8530-c138ddb1abe4, !- WinterDesignDay Schedule:Day Name
  a5c0b2b1-e3e4-40e0-8530-c138ddb1abe4, !- CustomDay1 Schedule:Day Name
  a5c0b2b1-e3e4-40e0-8530-c138ddb1abe4; !- CustomDay2 Schedule:Day Name

Schedule:Week:Daily, ApartmentMidRise EQP_APT_SCH_40,
  a5c0b2b1-e3e4-40e0-8530-c138ddb1abe4, !- Sunday Schedule:Day Name
  a5c0b2b1-e3e4-40e0-8530-c138ddb1abe4, !- Monday Schedule:Day Name
  a5c0b2b1-e3e4-40e0-8530-c138ddb1abe4, !- Tuesday Schedule:Day Name
  a5c0b2b1-e3e4-40e0-8530-c138ddb1abe4, !- Wednesday Schedule:Day Name
  a5c0b2b1-e3e4-40e0-8530-c138ddb1abe4, !- Thursday Schedule:Day Name
  a5c0b2b1-e3e4-40e0-8530-c138ddb1abe4, !- Friday Schedule:Day Name
  a5c0b2b1-e3e4-40e0-8530-c138ddb1abe4, !- Saturday Schedule:Day Name
  a5c0b2b1-e3e4-40e0-8530-c138ddb1abe4, !- Holiday Schedule:Day Name
  a5c0b2b1-e3e4-40e0-8530-c138ddb1abe4, !- SummerDesignDay Schedule:Day Name
  a5c0b2b1-e3e4-40e0-8530-c138ddb1abe4, !- WinterDesignDay Schedule:Day Name
  a5c0b2b1-e3e4-40e0-8530-c138ddb1abe4, !- CustomDay1 Schedule:Day Name
  a5c0b2b1-e3e4-40e0-8530-c138ddb1abe4; !- CustomDay2 Schedule:Day Name

Schedule:Week:Daily, ApartmentMidRise EQP_APT_SCH_41,
  a5c0b2b1-e3e4-40e0-8530-c138ddb1abe4, !- Sunday Schedule:Day Name
  a5c0b2b1-e3e4-40e0-8530-c138ddb1abe4, !- Monday Schedule:Day Name
  a5c0b2b1-e3e4-40e0-8530-c138ddb1abe4, !- Tuesday Schedule:Day Name
  a5c0b2b1-e3e4-40e0-8530-c138ddb1abe4, !- Wednesday Schedule:Day Name
  a5c0b2b1-e3e4-40e0-8530-c138ddb1abe4, !- Thursday Schedule:Day Name
  a5c0b2b1-e3e4-40e0-8530-c138ddb1abe4, !- Friday Schedule:Day Name
  a5c0b2b1-e3e4-40e0-8530-c138ddb1abe4, !- Saturday Schedule:Day Name
  a5c0b2b1-e3e4-40e0-8530-c138ddb1abe4, !- Holiday Schedule:Day Name
  a5c0b2b1-e3e4-40e0-8530-c138ddb1abe4, !- SummerDesignDay Schedule:Day Name
  a5c0b2b1-e3e4-40e0-8530-c138ddb1abe4, !- WinterDesignDay Schedule:Day Name
  a5c0b2b1-e3e4-40e0-8530-c138ddb1abe4, !- CustomDay1 Schedule:Day Name
  a5c0b2b1-e3e4-40e0-8530-c138ddb1abe4; !- CustomDay2 Schedule:Day Name

Schedule:Week:Daily, ApartmentMidRise EQP_APT_SCH_42,
  a5c0b2b1-e3e4-40e0-8530-c138ddb1abe4, !- Sunday Schedule:Day Name
  a5c0b2b1-e3e4-40e0-8530-c138ddb1abe4, !- Monday Schedule:Day Name
  a5c0b2b1-e3e4-40e0-8530-c138ddb1abe4, !- Tuesday Schedule:Day Name
  a5c0b2b1-e3e4-40e0-8530-c138ddb1abe4, !- Wednesday Schedule:Day Name
  a5c0b2b1-e3e4-40e0-8530-c138ddb1abe4, !- Thursday Schedule:Day Name
  a5c0b2b1-e3e4-40e0-8530-c138ddb1abe4, !- Friday Schedule:Day Name
  a5c0b2b1-e3e4-40e0-8530-c138ddb1abe4, !- Saturday Schedule:Day Name
  a5c0b2b1-e3e4-40e0-8530-c138ddb1abe4, !- Holiday Schedule:Day Name
  a5c0b2b1-e3e4-40e0-8530-c138ddb1abe4, !- SummerDesignDay Schedule:Day Name
  a5c0b2b1-e3e4-40e0-8530-c138ddb1abe4, !- WinterDesignDay Schedule:Day Name
  a5c0b2b1-e3e4-40e0-8530-c138ddb1abe4, !- CustomDay1 Schedule:Day Name
  a5c0b2b1-e3e4-40e0-8530-c138ddb1abe4; !- CustomDay2 Schedule:Day Name

Schedule:Week:Daily, ApartmentMidRise EQP_APT_SCH_43,
  a5c0b2b1-e3e4-40e0-8530-c138ddb1abe4, !- Sunday Schedule:Day Name
  a5c0b2b1-e3e4-40e0-8530-c138ddb1abe4, !- Monday Schedule:Day Name
  a5c0b2b1-e3e4-40e0-8530-c138ddb1abe4, !- Tuesday Schedule:Day Name
  a5c0b2b1-e3e4-40e0-8530-c138ddb1abe4, !- Wednesday Schedule:Day Name
  a5c0b2b1-e3e4-40e0-8530-c138ddb1abe4, !- Thursday Schedule:Day Name
  a5c0b2b1-e3e4-40e0-8530-c138ddb1abe4, !- Friday Schedule:Day Name
  a5c0b2b1-e3e4-40e0-8530-c138ddb1abe4, !- Saturday Schedule:Day Name
  a5c0b2b1-e3e4-40e0-8530-c138ddb1abe4, !- Holiday Schedule:Day Name
  a5c0b2b1-e3e4-40e0-8530-c138ddb1abe4, !- SummerDesignDay Schedule:Day Name
  a5c0b2b1-e3e4-40e0-8530-c138ddb1abe4, !- WinterDesignDay Schedule:Day Name
  a5c0b2b1-e3e4-40e0-8530-c138ddb1abe4, !- CustomDay1 Schedule:Day Name
  a5c0b2b1-e3e4-40e0-8530-c138ddb1abe4; !- CustomDay2 Schedule:Day Name

Schedule:Week:Daily, ApartmentMidRise EQP_APT_SCH_44,
  a5c0b2b1-e3e4-40e0-8530-c138ddb1abe4, !- Sunday Schedule:Day Name
  a5c0b2b1-e3e4-40e0-8530-c138ddb1abe4, !- Monday Schedule:Day Name
  a5c0b2b1-e3e4-40e0-8530-c138ddb1abe4, !- Tuesday Schedule:Day Name
  a5c0b2b1-e3e4-40e0-8530-c138ddb1abe4, !- Wednesday Schedule:Day Name
  a5c0b2b1-e3e4-40e0-8530-c138ddb1abe4, !- Thursday Schedule:Day Name
  a5c0b2b1-e3e4-40e0-8530-c138ddb1abe4, !- Friday Schedule:Day Name
  a5c0b2b1-e3e4-40e0-8530-c138ddb1abe4, !- Saturday Schedule:Day Name
  a5c0b2b1-e3e4-40e0-8530-c138ddb1abe4, !- Holiday Schedule:Day Name
  a5c0b2b1-e3e4-40e0-8530-c138ddb1abe4, !- SummerDesignDay Schedule:Day Name
  a5c0b2b1-e3e4-40e0-8530-c138ddb1abe4, !- WinterDesignDay Schedule:Day Name
  a5c0b2b1-e3e4-40e0-8530-c138ddb1abe4, !- CustomDay1 Schedule:Day Name
  a5c0b2b1-e3e4-40e0-8530-c138ddb1abe4; !- CustomDay2 Schedule:Day Name

Schedule:Week:Daily, ApartmentMidRise EQP_APT_SCH_45,
  a5c0b2b1-e3e4-40e0-8530-c138ddb1abe4, !- Sunday Schedule:Day Name
  a5c0b2b1-e3e4-40e0-8530-c138ddb1abe4, !- Monday Schedule:Day Name
  a5c0b2b1-e3e4-40e0-8530-c138ddb1abe4, !- Tuesday Schedule:Day Name
  a5c0b2b1-e3e4-40e0-8530-c138ddb1abe4, !- Wednesday Schedule:Day Name
  a5c0b2b1-e3e4-40e0-8530-c138ddb1abe4, !- Thursday Schedule:Day Name
  a5c0b2b1-e3e4-40e0-8530-c138ddb1abe4, !- Friday Schedule:Day Name
  a5c0b2b1-e3e4-40e0-8530-c138ddb1abe4, !- Saturday Schedule:Day Name
  a5c0b2b1-e3e4-40e0-8530-c138ddb1abe4, !- Holiday Schedule:Day Name
  a5c0b2b1-e3e4-40e0-8530-c138ddb1abe4, !- SummerDesignDay Schedule:Day Name
  a5c0b2b1-e3e4-40e0-8530-c138ddb1abe4, !- WinterDesignDay Schedule:Day Name
  a5c0b2b1-e3e4-40e0-8530-c138ddb1abe4, !- CustomDay1 Schedule:Day Name
  a5c0b2b1-e3e4-40e0-8530-c138ddb1abe4; !- CustomDay2 Schedule:Day Name

Schedule:Week:Daily, ApartmentMidRise EQP_APT_SCH_46,
  a5c0b2b1-e3e4-40e0-8530-c138ddb1abe4, !- Sunday Schedule:Day Name
  a5c0b2b1-e3e4-40e0-8530-c138ddb1abe4, !- Monday Schedule:Day Name
  a5c0b2b1-e3e4-40e0-8530-c138ddb1abe4, !- Tuesday Schedule:Day Name
  a5c0b2b1-e3e4-40e0-8530-c138ddb1abe4, !- Wednesday Schedule:Day Name
  a5c0b2b1-e3e4-40e0-8530-c138ddb1abe4, !- Thursday Schedule:Day Name
  a5c0b2b1-e3e4-40e0-8530-c138ddb1abe4, !- Friday Schedule:Day Name
  a5c0b2b1-e3e4-40e0-8530-c138ddb1abe4, !- Saturday Schedule:Day Name
  a5c0b2b1-e3e4-40e0-8530-c138ddb1abe4, !- Holiday Schedule:Day Name
  a5c0b2b1-e3e4-40e0-8530-c138ddb1abe4, !- SummerDesignDay Schedule:Day Name
  a5c0b2b1-e3e4-40e0-8530-c138ddb1abe4, !- WinterDesignDay Schedule:Day Name
  a5c0b2b1-e3e4-40e0-8530-c138ddb1abe4, !- CustomDay1 Schedule:Day Name
  a5c0b2b1-e3e4-40e0-8530-c138ddb1abe4; !- CustomDay2 Schedule:Day Name

Schedule:Week:Daily, ApartmentMidRise EQP_APT_SCH_47,
  a5c0b2b1-e3e4-40e0-8530-c138ddb1abe4, !- Sunday Schedule:Day Name
  a5c0b2b1-e3e4-40e0-8530-c138ddb1abe4, !- Monday Schedule:Day Name
  a5c0b2b1-e3e4-40e0-8530-c138ddb1abe4, !- Tuesday Schedule:Day Name
  a5c0b2b1-e3e4-40e0-8530-c138ddb1abe4, !- Wednesday Schedule:Day Name
  a5c0b2b1-e3e4-40e0-8530-c138ddb1abe4, !- Thursday Schedule:Day Name
  a5c0b2b1-e3e4-40e0-8530-c138ddb1abe4, !- Friday Schedule:Day Name
  a5c0b2b1-e3e4-40e0-8530-c138ddb1abe4, !- Saturday Schedule:Day Name
  a5c0b2b1-e3e4-40e0-8530-c138ddb1abe4, !- Holiday Schedule:Day Name
  a5c0b2b1-e3e4-40e0-8530-c138ddb1abe4, !- SummerDesignDay Schedule:Day Name
  a5c0b2b1-e3e4-40e0-8530-c138ddb1abe4, !- WinterDesignDay Schedule:Day Name
  a5c0b2b1-e3e4-40e0-8530-c138ddb1abe4, !- CustomDay1 Schedule:Day Name
  a5c0b2b1-e3e4-40e0-8530-c138ddb1abe4; !- CustomDay2 Schedule:Day Name

Schedule:Week:Daily, ApartmentMidRise EQP_APT_SCH_48,
  a5c0b2b1-e3e4-40e0-8530-c138ddb1abe4, !- Sunday Schedule:Day Name
  a5c0b2b1-e3e4-40e0-8530-c138ddb1abe4, !- Monday Schedule:Day Name
  a5c0b2b1-e3e4-40e0-8530-c138ddb1abe4, !- Tuesday Schedule:Day Name
  a5c0b2b1-e3e4-40e0-8530-c138ddb1abe4, !- Wednesday Schedule:Day Name
  a5c0b2b1-e3e4-40e0-8530-c138ddb1abe4, !- Thursday Schedule:Day Name
  a5c0b2b1-e3e4-40e0-8530-c138ddb1abe4, !- Friday Schedule:Day Name
  a5c0b2b1-e3e4-40e0-8530-c138ddb1abe4, !- Saturday Schedule:Day Name
  a5c0b2b1-e3e4-40e0-8530-c138ddb1abe4, !- Holiday Schedule:Day Name
  a5c0b2b1-e3e4-40e0-8530-c138ddb1abe4, !- SummerDesignDay Schedule:Day Name
  a5c0b2b1-e3e4-40e0-8530-c138ddb1abe4, !- WinterDesignDay Schedule:Day Name
  a5c0b2b1-e3e4-40e0-8530-c138ddb1abe4, !- CustomDay1 Schedule:Day Name
  a5c0b2b1-e3e4-40e0-8530-c138ddb1abe4; !- CustomDay2 Schedule:Day Name

Schedule:Week:Daily, ApartmentMidRise EQP_APT_SCH_49,
  a5c0b2b1-e3e4-40e0-8530-c138ddb1abe4, !- Sunday Schedule:Day Name
  a5c0b2b1-e3e4-40e0-8530-c138ddb1abe4, !- Monday Schedule:Day Name
  a5c0b2b1-e3e4-40e0-8530-c138ddb1abe4, !- Tuesday Schedule:Day Name
  a5c0b2b1-e3e4-40e0-8530-c138ddb1abe4, !- Wednesday Schedule:Day Name
  a5c0b2b1-e3e4-40e0-8530-c138ddb1abe4, !- Thursday Schedule:Day Name
  a5c0b2b1-e3e4-40e0-8530-c138ddb1abe4, !- Friday Schedule:Day Name
  a5c0b2b1-e3e4-40e0-8530-c138ddb1abe4, !- Saturday Schedule:Day Name
  a5c0b2b1-e3e4-40e0-8530-c138ddb1abe4, !- Holiday Schedule:Day Name
  a5c0b2b1-e3e4-40e0-8530-c138ddb1abe4, !- SummerDesignDay Schedule:Day Name
  a5c0b2b1-e3e4-40e0-8530-c138ddb1abe4, !- WinterDesignDay Schedule:Day Name
  a5c0b2b1-e3e4-40e0-8530-c138ddb1abe4, !- CustomDay1 Schedule:Day Name
  a5c0b2b1-e3e4-40e0-8530-c138ddb1abe4; !- CustomDay2 Schedule:Day Name

Schedule:Week:Daily, ApartmentMidRise EQP_APT_SCH_50,
  a5c0b2b1-e3e4-40e0-8530-c138ddb1abe4, !- Sunday Schedule:Day Name
  a5c0b2b1-e3e4-40e0-8530-c138ddb1abe4, !- Monday Schedule:Day Name
  a5c0b2b1-e3e4-40e0-8530-c138ddb1abe4, !- Tuesday Schedule:Day Name
  a5c0b2b1-e3e4-40e0-8530-c138ddb1abe4, !- Wednesday Schedule:Day Name
  a5c0b2b1-e3e4-40e0-8530-c138ddb1abe4, !- Thursday Schedule:Day Name
  a5c0b2b1-e3e4-40e0-8530-c138ddb1abe4, !- Friday Schedule:Day Name
  a5c0b2b1-e3e4-40e0-8530-c138ddb1abe4, !- Saturday Schedule:Day Name
  a5c0b2b1-e3e4-40e0-8530-c138ddb1abe4, !- Holiday Schedule:Day Name
  a5c0b2b1-e3e4-40e0-8530-c138ddb1abe4, !- SummerDesignDay Schedule:Day Name
  a5c0b2b1-e3e4-40e0-8530-c138ddb1abe4, !- WinterDesignDay Schedule:Day Name
  a5c0b2b1-e3e4-40e0-8530-c138ddb1abe4, !- CustomDay1 Schedule:Day Name
  a5c0b2b1-e3e4-40e0-8530-c138ddb1abe4; !- CustomDay2 Schedule:Day Name

Schedule:Week:Daily, ApartmentMidRise EQP_APT_SCH_51,
  a5c0b2b1-e3e4-40e0-8530-c138ddb1abe4, !- Sunday Schedule:Day Name
  a5c0b2b1-e3e4-40e0-8530-c138ddb1abe4, !- Monday Schedule:Day Name
  a5c0b2b1-e3e4-40e0-8530-c138ddb1abe4, !- Tuesday Schedule:Day Name
  a5c0b2b1-e3e4-40e0-8530-c138ddb1abe4, !- Wednesday Schedule:Day Name
  a5c0b2b1-e3e4-40e0-8530-c138ddb1abe4, !- Thursday Schedule:Day Name
  a5c0b2b1-e3e4-40e0-8530-c138ddb1abe4, !- Friday Schedule:Day Name
  a5c0b2b1-e3e4-40e0-8530-c138ddb1abe4, !- Saturday Schedule:Day Name
  a5c0b2b1-e3e4-40e0-8530-c138ddb1abe4, !- Holiday Schedule:Day Name
  a5c0b2b1-e3e4-40e0-8530-c138ddb1abe4, !- SummerDesignDay Schedule:Day Name
  a5c0b2b1-e3e4-40e0-8530-c138ddb1abe4, !- WinterDesignDay Schedule:Day Name
  a5c0b2b1-e3e4-40e0-8530-c138ddb1abe4, !- CustomDay1 Schedule:Day Name
  a5c0b2b1-e3e4-40e0-8530-c138ddb1abe4; !- CustomDay2 Schedule:Day Name

Schedule:Week:Daily, ApartmentMidRise EQP_APT_SCH_52,
  a5c0b2b1-e3e4-40e0-8530-c138ddb1abe4, !- Sunday Schedule:Day Name
  a5c0b2b1-e3e4-40e0-8530-c138ddb1abe4, !- Monday Schedule:Day Name
  a5c0b2b1-e3e4-40e0-8530-c138ddb1abe4, !- Tuesday Schedule:Day Name
  a5c0b2b1-e3e4-40e0-8530-c138ddb1abe4, !- Wednesday Schedule:Day Name
  a5c0b2b1-e3e4-40e0-8530-c138ddb1abe4, !- Thursday Schedule:Day Name
  a5c0b2b1-e3e4-40e0-8530-c138ddb1abe4, !- Friday Schedule:Day Name
  a5c0b2b1-e3e4-40e0-8530-c138ddb1abe4, !- Saturday Schedule:Day Name
  a5c0b2b1-e3e4-40e0-8530-c138ddb1abe4, !- Holiday Schedule:Day Name
  a5c0b2b1-e3e4-40e0-8530-c138ddb1abe4, !- SummerDesignDay Schedule:Day Name
  a5c0b2b1-e3e4-40e0-8530-c138ddb1abe4, !- WinterDesignDay Schedule:Day Name
  a5c0b2b1-e3e4-40e0-8530-c138ddb1abe4, !- CustomDay1 Schedule:Day Name
  a5c0b2b1-e3e4-40e0-8530-c138ddb1abe4; !- CustomDay2 Schedule:Day Name


Schedule:Year,HeatAvail_Zone_0,
Fraction,
HeatAvail_Zone_0_0,1,1,1,7, 
HeatAvail_Zone_0_1,1,8,1,14, 
HeatAvail_Zone_0_2,1,15,1,21, 
HeatAvail_Zone_0_3,1,22,1,28, 
HeatAvail_Zone_0_4,1,29,2,4, 
HeatAvail_Zone_0_5,2,5,2,11, 
HeatAvail_Zone_0_6,2,12,2,18, 
HeatAvail_Zone_0_7,2,19,2,25, 
HeatAvail_Zone_0_8,2,26,3,4, 
HeatAvail_Zone_0_9,3,5,3,11, 
HeatAvail_Zone_0_10,3,12,3,18, 
HeatAvail_Zone_0_11,3,19,3,25, 
HeatAvail_Zone_0_12,3,26,4,1, 
HeatAvail_Zone_0_13,4,2,4,8, 
HeatAvail_Zone_0_14,4,9,4,15, 
HeatAvail_Zone_0_15,4,16,4,22, 
HeatAvail_Zone_0_16,4,23,4,29, 
HeatAvail_Zone_0_17,4,30,5,6, 
HeatAvail_Zone_0_18,5,7,5,13, 
HeatAvail_Zone_0_19,5,14,5,20, 
HeatAvail_Zone_0_20,5,21,5,27, 
HeatAvail_Zone_0_21,5,28,6,3, 
HeatAvail_Zone_0_22,6,4,6,10, 
HeatAvail_Zone_0_23,6,11,6,17, 
HeatAvail_Zone_0_24,6,18,6,24, 
HeatAvail_Zone_0_25,6,25,7,1, 
HeatAvail_Zone_0_26,7,2,7,8, 
HeatAvail_Zone_0_27,7,9,7,15, 
HeatAvail_Zone_0_28,7,16,7,22, 
HeatAvail_Zone_0_29,7,23,7,29, 
HeatAvail_Zone_0_30,7,30,8,5, 
HeatAvail_Zone_0_31,8,6,8,12, 
HeatAvail_Zone_0_32,8,13,8,19, 
HeatAvail_Zone_0_33,8,20,8,26, 
HeatAvail_Zone_0_34,8,27,9,2, 
HeatAvail_Zone_0_35,9,3,9,9, 
HeatAvail_Zone_0_36,9,10,9,16, 
HeatAvail_Zone_0_37,9,17,9,23, 
HeatAvail_Zone_0_38,9,24,9,30, 
HeatAvail_Zone_0_39,10,1,10,7, 
HeatAvail_Zone_0_40,10,8,10,14, 
HeatAvail_Zone_0_41,10,15,10,21, 
HeatAvail_Zone_0_42,10,22,10,28, 
HeatAvail_Zone_0_43,10,29,11,4, 
HeatAvail_Zone_0_44,11,5,11,11, 
HeatAvail_Zone_0_45,11,12,11,18, 
HeatAvail_Zone_0_46,11,19,11,25, 
HeatAvail_Zone_0_47,11,26,12,2, 
HeatAvail_Zone_0_48,12,3,12,9, 
HeatAvail_Zone_0_49,12,10,12,16, 
HeatAvail_Zone_0_50,12,17,12,23, 
HeatAvail_Zone_0_51,12,24,12,30, 
HeatAvail_Zone_0_52,12,31,12,31;

Schedule:Week:Daily, HeatAvail_Zone_0_0,
  8618f100-70c2-48df-87e0-fab351c34c6b, !- Sunday Schedule:Day Name
  5dcdb427-e9f7-4689-9180-3caf423e22ed, !- Monday Schedule:Day Name
  81afa01e-09a0-48f0-80c4-d51ce1cab127, !- Tuesday Schedule:Day Name
  3cd3efd9-c042-47ce-b340-cc821a576093, !- Wednesday Schedule:Day Name
  1f0a6719-7bb2-40ba-813e-320f98ae352d, !- Thursday Schedule:Day Name
  ba2ee583-8b1e-4da9-bea0-6898974df253, !- Friday Schedule:Day Name
  926130ae-f225-4a34-92c9-1cb046bf1eec, !- Saturday Schedule:Day Name
  8618f100-70c2-48df-87e0-fab351c34c6b, !- Holiday Schedule:Day Name
  8618f100-70c2-48df-87e0-fab351c34c6b, !- SummerDesignDay Schedule:Day Name
  8618f100-70c2-48df-87e0-fab351c34c6b, !- WinterDesignDay Schedule:Day Name
  8618f100-70c2-48df-87e0-fab351c34c6b, !- CustomDay1 Schedule:Day Name
  8618f100-70c2-48df-87e0-fab351c34c6b; !- CustomDay2 Schedule:Day Name

Schedule:Week:Daily, HeatAvail_Zone_0_1,
  19df4775-b0ea-4311-b4c7-9b47212df40c, !- Sunday Schedule:Day Name
  a4de81bb-62dd-413f-b347-54048df0ec3b, !- Monday Schedule:Day Name
  14815d8d-3afd-4f05-9184-e9a77283cc26, !- Tuesday Schedule:Day Name
  33611082-0976-46d1-b902-5b496b6874f4, !- Wednesday Schedule:Day Name
  253c2796-c64f-472f-b25c-3e1240d7e6a8, !- Thursday Schedule:Day Name
  8b90107e-4638-441a-9e95-5783319c763c, !- Friday Schedule:Day Name
  02756fd2-63df-4c34-a473-0fff2fd6183c, !- Saturday Schedule:Day Name
  19df4775-b0ea-4311-b4c7-9b47212df40c, !- Holiday Schedule:Day Name
  19df4775-b0ea-4311-b4c7-9b47212df40c, !- SummerDesignDay Schedule:Day Name
  19df4775-b0ea-4311-b4c7-9b47212df40c, !- WinterDesignDay Schedule:Day Name
  19df4775-b0ea-4311-b4c7-9b47212df40c, !- CustomDay1 Schedule:Day Name
  19df4775-b0ea-4311-b4c7-9b47212df40c; !- CustomDay2 Schedule:Day Name

Schedule:Week:Daily, HeatAvail_Zone_0_2,
  908a2c86-dd1e-4717-bf7e-8c26c4dd02b6, !- Sunday Schedule:Day Name
  10cddf50-3af0-41ed-9158-3e58b74c72fd, !- Monday Schedule:Day Name
  253c2796-c64f-472f-b25c-3e1240d7e6a8, !- Tuesday Schedule:Day Name
  0d1e05ee-c032-4751-bd17-35229dda24f7, !- Wednesday Schedule:Day Name
  5dcdb427-e9f7-4689-9180-3caf423e22ed, !- Thursday Schedule:Day Name
  aa80f693-747a-49d9-91b8-8ea95c56ce05, !- Friday Schedule:Day Name
  87368852-f780-41ab-9086-c1382deee484, !- Saturday Schedule:Day Name
  908a2c86-dd1e-4717-bf7e-8c26c4dd02b6, !- Holiday Schedule:Day Name
  908a2c86-dd1e-4717-bf7e-8c26c4dd02b6, !- SummerDesignDay Schedule:Day Name
  908a2c86-dd1e-4717-bf7e-8c26c4dd02b6, !- WinterDesignDay Schedule:Day Name
  908a2c86-dd1e-4717-bf7e-8c26c4dd02b6, !- CustomDay1 Schedule:Day Name
  908a2c86-dd1e-4717-bf7e-8c26c4dd02b6; !- CustomDay2 Schedule:Day Name

Schedule:Week:Daily, HeatAvail_Zone_0_3,
  77587a13-7089-4d45-ab40-5d45ae6bfd6d, !- Sunday Schedule:Day Name
  1d77efd4-25ae-47c1-adf6-4d311e70798c, !- Monday Schedule:Day Name
  6671bfd2-5b98-40d8-9327-8cbcd87165f1, !- Tuesday Schedule:Day Name
  da6b72e5-e97a-4292-a2b7-513a6e8a3d11, !- Wednesday Schedule:Day Name
  2596d5a2-b66d-4e24-9263-ea2e18f87898, !- Thursday Schedule:Day Name
  8618f100-70c2-48df-87e0-fab351c34c6b, !- Friday Schedule:Day Name
  f04ce753-6cfe-4115-82ff-bbb9d4f8620e, !- Saturday Schedule:Day Name
  77587a13-7089-4d45-ab40-5d45ae6bfd6d, !- Holiday Schedule:Day Name
  77587a13-7089-4d45-ab40-5d45ae6bfd6d, !- SummerDesignDay Schedule:Day Name
  77587a13-7089-4d45-ab40-5d45ae6bfd6d, !- WinterDesignDay Schedule:Day Name
  77587a13-7089-4d45-ab40-5d45ae6bfd6d, !- CustomDay1 Schedule:Day Name
  77587a13-7089-4d45-ab40-5d45ae6bfd6d; !- CustomDay2 Schedule:Day Name

Schedule:Week:Daily, HeatAvail_Zone_0_4,
  cecc4cf8-ca63-4d31-9b9c-6714284e592c, !- Sunday Schedule:Day Name
  3dd9e1e0-8daa-4f08-a023-9c19800cc0b2, !- Monday Schedule:Day Name
  0a42ac73-97ca-4d90-9bbe-a0f31409f58c, !- Tuesday Schedule:Day Name
  f5b21968-f33b-499f-8c27-d37bb032ee17, !- Wednesday Schedule:Day Name
  aac78e26-21a9-4344-93f1-82c4f8052330, !- Thursday Schedule:Day Name
  7dc33dc8-4d07-41df-bb0f-79f8a1f0e58d, !- Friday Schedule:Day Name
  3dd9e1e0-8daa-4f08-a023-9c19800cc0b2, !- Saturday Schedule:Day Name
  cecc4cf8-ca63-4d31-9b9c-6714284e592c, !- Holiday Schedule:Day Name
  cecc4cf8-ca63-4d31-9b9c-6714284e592c, !- SummerDesignDay Schedule:Day Name
  cecc4cf8-ca63-4d31-9b9c-6714284e592c, !- WinterDesignDay Schedule:Day Name
  cecc4cf8-ca63-4d31-9b9c-6714284e592c, !- CustomDay1 Schedule:Day Name
  cecc4cf8-ca63-4d31-9b9c-6714284e592c; !- CustomDay2 Schedule:Day Name

Schedule:Week:Daily, HeatAvail_Zone_0_5,
  173a3c5b-6f92-4ca6-9f0e-244ffac931a2, !- Sunday Schedule:Day Name
  ffa688da-0411-44dd-9d70-72703ae6793f, !- Monday Schedule:Day Name
  4a292ec0-405d-4173-9fe5-0a00ddd43b25, !- Tuesday Schedule:Day Name
  4805e92b-9692-4833-b393-aed0ec1af40f, !- Wednesday Schedule:Day Name
  e297b3e2-62d7-4102-b660-d1e9a6a9a5d5, !- Thursday Schedule:Day Name
  2ec5f2f4-a667-483b-a77b-90ec7af7d53f, !- Friday Schedule:Day Name
  d9318bd6-45e4-4c6e-a6b2-45c7dccfe036, !- Saturday Schedule:Day Name
  173a3c5b-6f92-4ca6-9f0e-244ffac931a2, !- Holiday Schedule:Day Name
  173a3c5b-6f92-4ca6-9f0e-244ffac931a2, !- SummerDesignDay Schedule:Day Name
  173a3c5b-6f92-4ca6-9f0e-244ffac931a2, !- WinterDesignDay Schedule:Day Name
  173a3c5b-6f92-4ca6-9f0e-244ffac931a2, !- CustomDay1 Schedule:Day Name
  173a3c5b-6f92-4ca6-9f0e-244ffac931a2; !- CustomDay2 Schedule:Day Name

Schedule:Week:Daily, HeatAvail_Zone_0_6,
  3624dfa3-d9d9-498d-9e20-06e8e00cf470, !- Sunday Schedule:Day Name
  67b5a175-1fd3-4d4a-983d-e3cced3edf27, !- Monday Schedule:Day Name
  cdb81cbb-fde1-4456-a103-892fadcdade4, !- Tuesday Schedule:Day Name
  0a27d46e-0025-4ed1-a9ba-e2fb4c2d1fe4, !- Wednesday Schedule:Day Name
  8fdb9f43-f98f-409e-b0d1-73a9be143908, !- Thursday Schedule:Day Name
  b5191b74-66d0-43f3-9acf-947efe61db5a, !- Friday Schedule:Day Name
  fed7032a-de7c-4f09-9247-478ff5a78e8a, !- Saturday Schedule:Day Name
  3624dfa3-d9d9-498d-9e20-06e8e00cf470, !- Holiday Schedule:Day Name
  3624dfa3-d9d9-498d-9e20-06e8e00cf470, !- SummerDesignDay Schedule:Day Name
  3624dfa3-d9d9-498d-9e20-06e8e00cf470, !- WinterDesignDay Schedule:Day Name
  3624dfa3-d9d9-498d-9e20-06e8e00cf470, !- CustomDay1 Schedule:Day Name
  3624dfa3-d9d9-498d-9e20-06e8e00cf470; !- CustomDay2 Schedule:Day Name

Schedule:Week:Daily, HeatAvail_Zone_0_7,
  c8127eb5-13be-46a6-8e1c-8ab251adc347, !- Sunday Schedule:Day Name
  c5da146a-7fe7-4e89-8fdb-23770534d285, !- Monday Schedule:Day Name
  e9ce64f4-f0d0-4e34-a757-67552803a17d, !- Tuesday Schedule:Day Name
  5fae9a4a-0183-4bba-bc4b-251889534ca4, !- Wednesday Schedule:Day Name
  2929a138-1660-4b55-90c0-9f4d0cf14264, !- Thursday Schedule:Day Name
  a2806f5e-cc7e-4ab3-b8b5-036361ad0be6, !- Friday Schedule:Day Name
  6d34f87d-404a-4eea-a31d-9aa5e30c93dc, !- Saturday Schedule:Day Name
  c8127eb5-13be-46a6-8e1c-8ab251adc347, !- Holiday Schedule:Day Name
  c8127eb5-13be-46a6-8e1c-8ab251adc347, !- SummerDesignDay Schedule:Day Name
  c8127eb5-13be-46a6-8e1c-8ab251adc347, !- WinterDesignDay Schedule:Day Name
  c8127eb5-13be-46a6-8e1c-8ab251adc347, !- CustomDay1 Schedule:Day Name
  c8127eb5-13be-46a6-8e1c-8ab251adc347; !- CustomDay2 Schedule:Day Name

Schedule:Week:Daily, HeatAvail_Zone_0_8,
  8598695d-0908-4ae5-b45c-1ec5c0ce0dd9, !- Sunday Schedule:Day Name
  47a935ae-f23d-42b5-b13a-a75eb6c7574c, !- Monday Schedule:Day Name
  9ea4c9e5-dcff-42fc-a5e0-ffb2a21bcde0, !- Tuesday Schedule:Day Name
  6aa7458e-ba47-4ebb-bbac-355ceaf917ac, !- Wednesday Schedule:Day Name
  13fd4666-c351-46ba-b242-2af52b7be5ee, !- Thursday Schedule:Day Name
  b2b72998-069d-4b87-8486-3bfb9409d13a, !- Friday Schedule:Day Name
  6bf10be0-f6d1-42b2-b7f7-fee7ecca2194, !- Saturday Schedule:Day Name
  8598695d-0908-4ae5-b45c-1ec5c0ce0dd9, !- Holiday Schedule:Day Name
  8598695d-0908-4ae5-b45c-1ec5c0ce0dd9, !- SummerDesignDay Schedule:Day Name
  8598695d-0908-4ae5-b45c-1ec5c0ce0dd9, !- WinterDesignDay Schedule:Day Name
  8598695d-0908-4ae5-b45c-1ec5c0ce0dd9, !- CustomDay1 Schedule:Day Name
  8598695d-0908-4ae5-b45c-1ec5c0ce0dd9; !- CustomDay2 Schedule:Day Name

Schedule:Week:Daily, HeatAvail_Zone_0_9,
  459521f2-5a61-4250-bef6-1112113012dd, !- Sunday Schedule:Day Name
  2292208f-2845-429b-bb48-36c8d8b4e48c, !- Monday Schedule:Day Name
  6bf10be0-f6d1-42b2-b7f7-fee7ecca2194, !- Tuesday Schedule:Day Name
  e26118ea-5186-4172-8c6b-a35f60b5b1e5, !- Wednesday Schedule:Day Name
  eec8f66c-e121-4b67-8ecc-62cb04a25d93, !- Thursday Schedule:Day Name
  36c41bda-17ce-4903-9bf4-7aae47858b31, !- Friday Schedule:Day Name
  650e5035-8585-4697-8746-d79a37c8486d, !- Saturday Schedule:Day Name
  459521f2-5a61-4250-bef6-1112113012dd, !- Holiday Schedule:Day Name
  459521f2-5a61-4250-bef6-1112113012dd, !- SummerDesignDay Schedule:Day Name
  459521f2-5a61-4250-bef6-1112113012dd, !- WinterDesignDay Schedule:Day Name
  459521f2-5a61-4250-bef6-1112113012dd, !- CustomDay1 Schedule:Day Name
  459521f2-5a61-4250-bef6-1112113012dd; !- CustomDay2 Schedule:Day Name

Schedule:Week:Daily, HeatAvail_Zone_0_10,
  80749889-dadb-48cb-a655-ff23c6ba5b6a, !- Sunday Schedule:Day Name
  6bf10be0-f6d1-42b2-b7f7-fee7ecca2194, !- Monday Schedule:Day Name
  e0e52828-7cdb-4a90-838a-0c1c23b12183, !- Tuesday Schedule:Day Name
  f0115db6-a71b-4640-92f0-770737d62856, !- Wednesday Schedule:Day Name
  eb66565a-3a0c-45e3-abf2-48608562d179, !- Thursday Schedule:Day Name
  9f6e1a9c-7deb-41ad-bae1-43a319a2527a, !- Friday Schedule:Day Name
  3c8e89a2-9075-471a-a763-be3aea2d72cb, !- Saturday Schedule:Day Name
  80749889-dadb-48cb-a655-ff23c6ba5b6a, !- Holiday Schedule:Day Name
  80749889-dadb-48cb-a655-ff23c6ba5b6a, !- SummerDesignDay Schedule:Day Name
  80749889-dadb-48cb-a655-ff23c6ba5b6a, !- WinterDesignDay Schedule:Day Name
  80749889-dadb-48cb-a655-ff23c6ba5b6a, !- CustomDay1 Schedule:Day Name
  80749889-dadb-48cb-a655-ff23c6ba5b6a; !- CustomDay2 Schedule:Day Name

Schedule:Week:Daily, HeatAvail_Zone_0_11,
  6bf10be0-f6d1-42b2-b7f7-fee7ecca2194, !- Sunday Schedule:Day Name
  76036948-5d5f-4298-ab69-2e66044eb0e4, !- Monday Schedule:Day Name
  e2d8618c-8444-4b1f-931d-77fdf4492413, !- Tuesday Schedule:Day Name
  c74881af-9865-479a-9cda-6c12b9aa4081, !- Wednesday Schedule:Day Name
  a92554cf-7a8b-4c7e-beea-d9e539cad856, !- Thursday Schedule:Day Name
  900352b6-8567-41c0-a874-a1ea5300ae36, !- Friday Schedule:Day Name
  8d65c598-f994-4d17-9f80-0806b0623890, !- Saturday Schedule:Day Name
  6bf10be0-f6d1-42b2-b7f7-fee7ecca2194, !- Holiday Schedule:Day Name
  6bf10be0-f6d1-42b2-b7f7-fee7ecca2194, !- SummerDesignDay Schedule:Day Name
  6bf10be0-f6d1-42b2-b7f7-fee7ecca2194, !- WinterDesignDay Schedule:Day Name
  6bf10be0-f6d1-42b2-b7f7-fee7ecca2194, !- CustomDay1 Schedule:Day Name
  6bf10be0-f6d1-42b2-b7f7-fee7ecca2194; !- CustomDay2 Schedule:Day Name

Schedule:Week:Daily, HeatAvail_Zone_0_12,
  baf29dc9-2d8a-46c0-859f-f18bd0da22ab, !- Sunday Schedule:Day Name
  8a6b3492-e083-40c5-aa51-ab8a93dd7cf6, !- Monday Schedule:Day Name
  9b77ef3a-6f8f-4932-9b30-c6e980fc680b, !- Tuesday Schedule:Day Name
  8967aa4d-88cc-4e3d-855a-5997934946f3, !- Wednesday Schedule:Day Name
  ee39d697-00d3-4a7d-a87b-48ae385d2e26, !- Thursday Schedule:Day Name
  f719df47-8246-4c65-84d1-2f92cc272685, !- Friday Schedule:Day Name
  37defae6-4713-40da-ba10-cc5639f9dab6, !- Saturday Schedule:Day Name
  baf29dc9-2d8a-46c0-859f-f18bd0da22ab, !- Holiday Schedule:Day Name
  baf29dc9-2d8a-46c0-859f-f18bd0da22ab, !- SummerDesignDay Schedule:Day Name
  baf29dc9-2d8a-46c0-859f-f18bd0da22ab, !- WinterDesignDay Schedule:Day Name
  baf29dc9-2d8a-46c0-859f-f18bd0da22ab, !- CustomDay1 Schedule:Day Name
  baf29dc9-2d8a-46c0-859f-f18bd0da22ab; !- CustomDay2 Schedule:Day Name

Schedule:Week:Daily, HeatAvail_Zone_0_13,
  445c2965-d68a-4649-92c7-32e51d912d9e, !- Sunday Schedule:Day Name
  17f23b1e-bc73-4d8b-959e-a6c03055f6f0, !- Monday Schedule:Day Name
  5fb45ac4-0577-4554-a574-0de95ce07d0e, !- Tuesday Schedule:Day Name
  b8f263ea-c9af-4f33-bdfd-9ce0bd98058f, !- Wednesday Schedule:Day Name
  24dff24f-8dbf-4efd-9212-9b774f90ba42, !- Thursday Schedule:Day Name
  f611fdf0-2572-43c5-b082-f1eae64a3ce6, !- Friday Schedule:Day Name
  4541d807-e474-402a-903b-ae2befa428d1, !- Saturday Schedule:Day Name
  445c2965-d68a-4649-92c7-32e51d912d9e, !- Holiday Schedule:Day Name
  445c2965-d68a-4649-92c7-32e51d912d9e, !- SummerDesignDay Schedule:Day Name
  445c2965-d68a-4649-92c7-32e51d912d9e, !- WinterDesignDay Schedule:Day Name
  445c2965-d68a-4649-92c7-32e51d912d9e, !- CustomDay1 Schedule:Day Name
  445c2965-d68a-4649-92c7-32e51d912d9e; !- CustomDay2 Schedule:Day Name

Schedule:Week:Daily, HeatAvail_Zone_0_14,
  cf356f11-1212-4417-97fa-0735ca71a9ab, !- Sunday Schedule:Day Name
  f91da99f-00f2-48c4-ae56-cf34869638f3, !- Monday Schedule:Day Name
  d048da0d-5d6e-4f9a-a795-8de3ca902bdf, !- Tuesday Schedule:Day Name
  190d0247-2bda-4784-8e60-7c67e017307d, !- Wednesday Schedule:Day Name
  73c456bc-99ee-4c52-bf99-797e61b6e482, !- Thursday Schedule:Day Name
  de609169-ed74-4ff6-8260-191d73b4bdcc, !- Friday Schedule:Day Name
  54fb2f69-c7c4-4e69-b71f-8d5c25f28460, !- Saturday Schedule:Day Name
  cf356f11-1212-4417-97fa-0735ca71a9ab, !- Holiday Schedule:Day Name
  cf356f11-1212-4417-97fa-0735ca71a9ab, !- SummerDesignDay Schedule:Day Name
  cf356f11-1212-4417-97fa-0735ca71a9ab, !- WinterDesignDay Schedule:Day Name
  cf356f11-1212-4417-97fa-0735ca71a9ab, !- CustomDay1 Schedule:Day Name
  cf356f11-1212-4417-97fa-0735ca71a9ab; !- CustomDay2 Schedule:Day Name

Schedule:Week:Daily, HeatAvail_Zone_0_15,
  5a3077c5-6529-4acc-bf47-0f8893dd8d6c, !- Sunday Schedule:Day Name
  005f949a-5569-4b14-b96d-eb8998b7f2c9, !- Monday Schedule:Day Name
  52e2ade8-1f00-496b-9824-a73b9e2fd094, !- Tuesday Schedule:Day Name
  3b21223f-68a8-4be7-974c-23edd7627b52, !- Wednesday Schedule:Day Name
  700a86a3-c248-472e-a724-58b2bdaea0c0, !- Thursday Schedule:Day Name
  13d69347-03a3-4421-b1a3-e150d12f5152, !- Friday Schedule:Day Name
  03750ff8-abe3-47dc-8a36-8e2b9823c399, !- Saturday Schedule:Day Name
  5a3077c5-6529-4acc-bf47-0f8893dd8d6c, !- Holiday Schedule:Day Name
  5a3077c5-6529-4acc-bf47-0f8893dd8d6c, !- SummerDesignDay Schedule:Day Name
  5a3077c5-6529-4acc-bf47-0f8893dd8d6c, !- WinterDesignDay Schedule:Day Name
  5a3077c5-6529-4acc-bf47-0f8893dd8d6c, !- CustomDay1 Schedule:Day Name
  5a3077c5-6529-4acc-bf47-0f8893dd8d6c; !- CustomDay2 Schedule:Day Name

Schedule:Week:Daily, HeatAvail_Zone_0_16,
  5ab05ab3-b1af-4255-b127-d34ad17933b2, !- Sunday Schedule:Day Name
  e4f44599-e79e-4247-8cb8-fa2dc344c39d, !- Monday Schedule:Day Name
  cba2dbf9-67c6-4c93-a4db-e820dae3204b, !- Tuesday Schedule:Day Name
  873b6a4e-3d96-4138-a12d-423740b44d1e, !- Wednesday Schedule:Day Name
  fcbe0f6d-2377-4457-b210-3fa5220d421b, !- Thursday Schedule:Day Name
  174cbcc6-2b20-4967-a4d4-7bc75d614806, !- Friday Schedule:Day Name
  bb9082ca-1504-4933-822d-fa32c990714c, !- Saturday Schedule:Day Name
  5ab05ab3-b1af-4255-b127-d34ad17933b2, !- Holiday Schedule:Day Name
  5ab05ab3-b1af-4255-b127-d34ad17933b2, !- SummerDesignDay Schedule:Day Name
  5ab05ab3-b1af-4255-b127-d34ad17933b2, !- WinterDesignDay Schedule:Day Name
  5ab05ab3-b1af-4255-b127-d34ad17933b2, !- CustomDay1 Schedule:Day Name
  5ab05ab3-b1af-4255-b127-d34ad17933b2; !- CustomDay2 Schedule:Day Name

Schedule:Week:Daily, HeatAvail_Zone_0_17,
  1a41d748-84e7-4e9f-9eae-29ec90adbabc, !- Sunday Schedule:Day Name
  6f9a280c-f113-4df8-be47-a3bfe5226045, !- Monday Schedule:Day Name
  7c84806f-9c50-4994-b1d5-6df72d261e57, !- Tuesday Schedule:Day Name
  8037efc8-13b6-4a93-94dd-cd9c610bbcd2, !- Wednesday Schedule:Day Name
  c9abe060-4dd1-4f50-8d8c-ecfd4b0bc287, !- Thursday Schedule:Day Name
  e63e00f2-58f7-4067-a124-0d1c072ae056, !- Friday Schedule:Day Name
  d5c8d91d-91c5-4d26-9efd-40254dbc03d1, !- Saturday Schedule:Day Name
  1a41d748-84e7-4e9f-9eae-29ec90adbabc, !- Holiday Schedule:Day Name
  1a41d748-84e7-4e9f-9eae-29ec90adbabc, !- SummerDesignDay Schedule:Day Name
  1a41d748-84e7-4e9f-9eae-29ec90adbabc, !- WinterDesignDay Schedule:Day Name
  1a41d748-84e7-4e9f-9eae-29ec90adbabc, !- CustomDay1 Schedule:Day Name
  1a41d748-84e7-4e9f-9eae-29ec90adbabc; !- CustomDay2 Schedule:Day Name

Schedule:Week:Daily, HeatAvail_Zone_0_18,
  56767e32-0bbe-4584-a736-3ad97285764f, !- Sunday Schedule:Day Name
  ee7902c7-d035-436e-a2fd-e21eac2f445f, !- Monday Schedule:Day Name
  99f79bd4-46e3-417d-93f6-9dce57a70617, !- Tuesday Schedule:Day Name
  56767e32-0bbe-4584-a736-3ad97285764f, !- Wednesday Schedule:Day Name
  d3626a7e-168d-4c03-8cb7-2788b177a6a8, !- Thursday Schedule:Day Name
  5b12d769-f2eb-4bce-91d2-b084a38cf1a7, !- Friday Schedule:Day Name
  6fa8b0f2-524f-4750-a1d2-6686eae5b4d9, !- Saturday Schedule:Day Name
  56767e32-0bbe-4584-a736-3ad97285764f, !- Holiday Schedule:Day Name
  56767e32-0bbe-4584-a736-3ad97285764f, !- SummerDesignDay Schedule:Day Name
  56767e32-0bbe-4584-a736-3ad97285764f, !- WinterDesignDay Schedule:Day Name
  56767e32-0bbe-4584-a736-3ad97285764f, !- CustomDay1 Schedule:Day Name
  56767e32-0bbe-4584-a736-3ad97285764f; !- CustomDay2 Schedule:Day Name

Schedule:Week:Daily, HeatAvail_Zone_0_19,
  ba701114-7120-428a-ad82-ddaf91083595, !- Sunday Schedule:Day Name
  5ab47c27-6665-4fb4-bcea-afccf7fff385, !- Monday Schedule:Day Name
  c8653ceb-114b-470c-bd22-1020441d18ba, !- Tuesday Schedule:Day Name
  299e4ed5-6e00-431b-adf6-6c5f359e0624, !- Wednesday Schedule:Day Name
  dd024e59-59e9-4ec0-b340-24a72d16a332, !- Thursday Schedule:Day Name
  bc5682cf-dbcc-4b62-9317-e1f1ad267d16, !- Friday Schedule:Day Name
  16bdee08-d361-4b29-a00e-2c5b6f4287bf, !- Saturday Schedule:Day Name
  ba701114-7120-428a-ad82-ddaf91083595, !- Holiday Schedule:Day Name
  ba701114-7120-428a-ad82-ddaf91083595, !- SummerDesignDay Schedule:Day Name
  ba701114-7120-428a-ad82-ddaf91083595, !- WinterDesignDay Schedule:Day Name
  ba701114-7120-428a-ad82-ddaf91083595, !- CustomDay1 Schedule:Day Name
  ba701114-7120-428a-ad82-ddaf91083595; !- CustomDay2 Schedule:Day Name

Schedule:Week:Daily, HeatAvail_Zone_0_20,
  d6000f41-bb7b-45ed-b57a-afc1b073e2b7, !- Sunday Schedule:Day Name
  b65bf38e-3a35-4375-9410-f2335e962c88, !- Monday Schedule:Day Name
  ba701114-7120-428a-ad82-ddaf91083595, !- Tuesday Schedule:Day Name
  fcd7c620-d12f-4264-99fa-12fe2d0fe360, !- Wednesday Schedule:Day Name
  b0e7f3e7-0b0a-47e6-8ce3-1c4db2f07d11, !- Thursday Schedule:Day Name
  f184602a-fd31-4090-b52c-4353cb4ac094, !- Friday Schedule:Day Name
  bd2ac4d5-fa12-4449-a241-cc3671ba5225, !- Saturday Schedule:Day Name
  d6000f41-bb7b-45ed-b57a-afc1b073e2b7, !- Holiday Schedule:Day Name
  d6000f41-bb7b-45ed-b57a-afc1b073e2b7, !- SummerDesignDay Schedule:Day Name
  d6000f41-bb7b-45ed-b57a-afc1b073e2b7, !- WinterDesignDay Schedule:Day Name
  d6000f41-bb7b-45ed-b57a-afc1b073e2b7, !- CustomDay1 Schedule:Day Name
  d6000f41-bb7b-45ed-b57a-afc1b073e2b7; !- CustomDay2 Schedule:Day Name

Schedule:Week:Daily, HeatAvail_Zone_0_21,
  2d9e612a-7c91-4d10-a7cc-a66538fbc4e2, !- Sunday Schedule:Day Name
  ffa688da-0411-44dd-9d70-72703ae6793f, !- Monday Schedule:Day Name
  82b83fac-625c-4f48-ae0d-23de262ce1d7, !- Tuesday Schedule:Day Name
  f5dedbc6-e168-4066-87d3-7737789f1eec, !- Wednesday Schedule:Day Name
  3908fc97-3355-42f9-a5f0-17b85040369a, !- Thursday Schedule:Day Name
  441b293e-0602-4a86-ba3b-95f8a9617749, !- Friday Schedule:Day Name
  2cad1ec2-4263-4796-8c4d-cb13d4fa78d7, !- Saturday Schedule:Day Name
  2d9e612a-7c91-4d10-a7cc-a66538fbc4e2, !- Holiday Schedule:Day Name
  2d9e612a-7c91-4d10-a7cc-a66538fbc4e2, !- SummerDesignDay Schedule:Day Name
  2d9e612a-7c91-4d10-a7cc-a66538fbc4e2, !- WinterDesignDay Schedule:Day Name
  2d9e612a-7c91-4d10-a7cc-a66538fbc4e2, !- CustomDay1 Schedule:Day Name
  2d9e612a-7c91-4d10-a7cc-a66538fbc4e2; !- CustomDay2 Schedule:Day Name

Schedule:Week:Daily, HeatAvail_Zone_0_22,
  09dc48e1-efa4-4e49-a927-84a0933d98ab, !- Sunday Schedule:Day Name
  988bcd57-c17a-4639-b57e-eb5c7ba8262e, !- Monday Schedule:Day Name
  06e69188-7907-4533-95c3-5364d0cb791f, !- Tuesday Schedule:Day Name
  65443338-ecc9-491c-8e3c-de1552718c27, !- Wednesday Schedule:Day Name
  ae68125d-280e-4a5f-a8d5-b193018a8ac9, !- Thursday Schedule:Day Name
  85b21898-48cb-4375-96c5-dc00d1059298, !- Friday Schedule:Day Name
  d2be773e-9853-48d9-b5f6-a2d711cee537, !- Saturday Schedule:Day Name
  09dc48e1-efa4-4e49-a927-84a0933d98ab, !- Holiday Schedule:Day Name
  09dc48e1-efa4-4e49-a927-84a0933d98ab, !- SummerDesignDay Schedule:Day Name
  09dc48e1-efa4-4e49-a927-84a0933d98ab, !- WinterDesignDay Schedule:Day Name
  09dc48e1-efa4-4e49-a927-84a0933d98ab, !- CustomDay1 Schedule:Day Name
  09dc48e1-efa4-4e49-a927-84a0933d98ab; !- CustomDay2 Schedule:Day Name

Schedule:Week:Daily, HeatAvail_Zone_0_23,
  a6e490b1-8780-410f-80c0-f6a94a7a68a3, !- Sunday Schedule:Day Name
  0bdf1e4c-e64a-4a98-b225-d7286654d542, !- Monday Schedule:Day Name
  bcf447b6-8acd-48a3-b0fa-01d10871c608, !- Tuesday Schedule:Day Name
  d693a4b4-7284-4f9f-951e-67121e27e855, !- Wednesday Schedule:Day Name
  44f43c23-ed09-4daf-a0f3-317aa98009c0, !- Thursday Schedule:Day Name
  b88c0806-e919-4a23-821f-b640699859c1, !- Friday Schedule:Day Name
  fb5b515e-8c7a-48d7-86a2-7d42d0825d69, !- Saturday Schedule:Day Name
  a6e490b1-8780-410f-80c0-f6a94a7a68a3, !- Holiday Schedule:Day Name
  a6e490b1-8780-410f-80c0-f6a94a7a68a3, !- SummerDesignDay Schedule:Day Name
  a6e490b1-8780-410f-80c0-f6a94a7a68a3, !- WinterDesignDay Schedule:Day Name
  a6e490b1-8780-410f-80c0-f6a94a7a68a3, !- CustomDay1 Schedule:Day Name
  a6e490b1-8780-410f-80c0-f6a94a7a68a3; !- CustomDay2 Schedule:Day Name

Schedule:Week:Daily, HeatAvail_Zone_0_24,
  bc494091-d086-494c-a6e8-676ddecb8490, !- Sunday Schedule:Day Name
  6b5617f7-a3bd-4afd-859b-ae8e27d032a0, !- Monday Schedule:Day Name
  fed21e98-cc81-4a2f-9d92-313f98c174c0, !- Tuesday Schedule:Day Name
  bf34a027-6a11-4120-9c15-5fe23a1c0184, !- Wednesday Schedule:Day Name
  feacbf2d-9493-4998-947d-4cc14bcbe2b5, !- Thursday Schedule:Day Name
  f29213d9-6cd8-4b0c-a869-7c28f96644df, !- Friday Schedule:Day Name
  d5f4d274-0c7a-4976-ab4c-c97a5b730c77, !- Saturday Schedule:Day Name
  bc494091-d086-494c-a6e8-676ddecb8490, !- Holiday Schedule:Day Name
  bc494091-d086-494c-a6e8-676ddecb8490, !- SummerDesignDay Schedule:Day Name
  bc494091-d086-494c-a6e8-676ddecb8490, !- WinterDesignDay Schedule:Day Name
  bc494091-d086-494c-a6e8-676ddecb8490, !- CustomDay1 Schedule:Day Name
  bc494091-d086-494c-a6e8-676ddecb8490; !- CustomDay2 Schedule:Day Name

Schedule:Week:Daily, HeatAvail_Zone_0_25,
  2460e41d-3332-4a28-aefc-0efdb1055dc2, !- Sunday Schedule:Day Name
  e497de92-5bfe-4dbc-aba1-72e8d7e1619e, !- Monday Schedule:Day Name
  2b103ae3-cff9-48dc-a7cd-95ddd8d247a1, !- Tuesday Schedule:Day Name
  c7fdae3b-665f-439c-8bf2-8c1810a98bc6, !- Wednesday Schedule:Day Name
  d81dddf7-af21-4780-8db8-95a03fef33bd, !- Thursday Schedule:Day Name
  12c814b5-42fe-494f-9831-5e8450348377, !- Friday Schedule:Day Name
  c14b5db2-bb33-4589-ac6a-cde458e66fef, !- Saturday Schedule:Day Name
  2460e41d-3332-4a28-aefc-0efdb1055dc2, !- Holiday Schedule:Day Name
  2460e41d-3332-4a28-aefc-0efdb1055dc2, !- SummerDesignDay Schedule:Day Name
  2460e41d-3332-4a28-aefc-0efdb1055dc2, !- WinterDesignDay Schedule:Day Name
  2460e41d-3332-4a28-aefc-0efdb1055dc2, !- CustomDay1 Schedule:Day Name
  2460e41d-3332-4a28-aefc-0efdb1055dc2; !- CustomDay2 Schedule:Day Name

Schedule:Week:Daily, HeatAvail_Zone_0_26,
  203f84ad-dd81-4292-9bd3-b34fef127576, !- Sunday Schedule:Day Name
  e5e8ad67-8b0b-4852-a071-0c1651beece7, !- Monday Schedule:Day Name
  54296a64-0089-4074-9c9e-132eec36a17d, !- Tuesday Schedule:Day Name
  78147d6d-f0e7-4a3c-b0cc-fa2e9ab0f3dc, !- Wednesday Schedule:Day Name
  54eb0daf-bc92-4d96-96a8-27b4a3b3ab42, !- Thursday Schedule:Day Name
  03e1b542-975f-44a0-95b7-bf40f2fbd275, !- Friday Schedule:Day Name
  ac315ea3-b06d-49ed-b1d1-5054dc91f7c0, !- Saturday Schedule:Day Name
  203f84ad-dd81-4292-9bd3-b34fef127576, !- Holiday Schedule:Day Name
  203f84ad-dd81-4292-9bd3-b34fef127576, !- SummerDesignDay Schedule:Day Name
  203f84ad-dd81-4292-9bd3-b34fef127576, !- WinterDesignDay Schedule:Day Name
  203f84ad-dd81-4292-9bd3-b34fef127576, !- CustomDay1 Schedule:Day Name
  203f84ad-dd81-4292-9bd3-b34fef127576; !- CustomDay2 Schedule:Day Name

Schedule:Week:Daily, HeatAvail_Zone_0_27,
  a74eb03a-a13e-4bf3-99f2-b5a56bff7dbc, !- Sunday Schedule:Day Name
  92dca615-0297-4730-aefa-3b81817bd22c, !- Monday Schedule:Day Name
  b8025866-3654-473c-8bc1-0ba4f2893154, !- Tuesday Schedule:Day Name
  433db98a-a20d-4841-8b8a-a1d7e7a3c249, !- Wednesday Schedule:Day Name
  3e854e13-7400-4d4c-8724-f10f6e038dc1, !- Thursday Schedule:Day Name
  914fc65a-65aa-4205-aed3-26715ee28154, !- Friday Schedule:Day Name
  839fd083-3dbd-4375-9952-c691495287d2, !- Saturday Schedule:Day Name
  a74eb03a-a13e-4bf3-99f2-b5a56bff7dbc, !- Holiday Schedule:Day Name
  a74eb03a-a13e-4bf3-99f2-b5a56bff7dbc, !- SummerDesignDay Schedule:Day Name
  a74eb03a-a13e-4bf3-99f2-b5a56bff7dbc, !- WinterDesignDay Schedule:Day Name
  a74eb03a-a13e-4bf3-99f2-b5a56bff7dbc, !- CustomDay1 Schedule:Day Name
  a74eb03a-a13e-4bf3-99f2-b5a56bff7dbc; !- CustomDay2 Schedule:Day Name

Schedule:Week:Daily, HeatAvail_Zone_0_28,
  7a9f45a6-7bd1-4934-a33a-864da3353612, !- Sunday Schedule:Day Name
  86398017-033e-4fd4-99d2-5dc76c0c5157, !- Monday Schedule:Day Name
  ae940f5e-48f8-4872-af59-07b72ce14b47, !- Tuesday Schedule:Day Name
  b95c4d5e-26a9-4707-9df0-f76313d06b9b, !- Wednesday Schedule:Day Name
  8037efc8-13b6-4a93-94dd-cd9c610bbcd2, !- Thursday Schedule:Day Name
  35b02d20-7958-42f8-8221-3676ababc8f7, !- Friday Schedule:Day Name
  2d9e612a-7c91-4d10-a7cc-a66538fbc4e2, !- Saturday Schedule:Day Name
  7a9f45a6-7bd1-4934-a33a-864da3353612, !- Holiday Schedule:Day Name
  7a9f45a6-7bd1-4934-a33a-864da3353612, !- SummerDesignDay Schedule:Day Name
  7a9f45a6-7bd1-4934-a33a-864da3353612, !- WinterDesignDay Schedule:Day Name
  7a9f45a6-7bd1-4934-a33a-864da3353612, !- CustomDay1 Schedule:Day Name
  7a9f45a6-7bd1-4934-a33a-864da3353612; !- CustomDay2 Schedule:Day Name

Schedule:Week:Daily, HeatAvail_Zone_0_29,
  8e08edd5-54b0-4f9a-aa5b-5d6334086c43, !- Sunday Schedule:Day Name
  67f88dbc-49c9-4911-ba1c-78ebb7d7d587, !- Monday Schedule:Day Name
  c7165080-6564-4f63-8eb2-5283c76803c6, !- Tuesday Schedule:Day Name
  883197e9-7c75-4b18-a137-2211aa266f75, !- Wednesday Schedule:Day Name
  8037efc8-13b6-4a93-94dd-cd9c610bbcd2, !- Thursday Schedule:Day Name
  8037efc8-13b6-4a93-94dd-cd9c610bbcd2, !- Friday Schedule:Day Name
  229aaf90-c371-42d9-a0d0-5becb96f7fb4, !- Saturday Schedule:Day Name
  8e08edd5-54b0-4f9a-aa5b-5d6334086c43, !- Holiday Schedule:Day Name
  8e08edd5-54b0-4f9a-aa5b-5d6334086c43, !- SummerDesignDay Schedule:Day Name
  8e08edd5-54b0-4f9a-aa5b-5d6334086c43, !- WinterDesignDay Schedule:Day Name
  8e08edd5-54b0-4f9a-aa5b-5d6334086c43, !- CustomDay1 Schedule:Day Name
  8e08edd5-54b0-4f9a-aa5b-5d6334086c43; !- CustomDay2 Schedule:Day Name

Schedule:Week:Daily, HeatAvail_Zone_0_30,
  1f6c8006-6d32-4bd7-9267-d0568a08bb0b, !- Sunday Schedule:Day Name
  6bf10be0-f6d1-42b2-b7f7-fee7ecca2194, !- Monday Schedule:Day Name
  63ac0d5d-a4de-49a6-827c-0b2b6ce9044e, !- Tuesday Schedule:Day Name
  55e9b221-8cd5-4b2f-b3b4-4624d3cab62b, !- Wednesday Schedule:Day Name
  f5b311a1-8d18-420e-891f-46a6fcdf9abb, !- Thursday Schedule:Day Name
  18d54636-aa9f-4fcc-b42e-b564506e06e2, !- Friday Schedule:Day Name
  5bbd3b37-34ac-4bc2-a72d-0bb5cd506a53, !- Saturday Schedule:Day Name
  1f6c8006-6d32-4bd7-9267-d0568a08bb0b, !- Holiday Schedule:Day Name
  1f6c8006-6d32-4bd7-9267-d0568a08bb0b, !- SummerDesignDay Schedule:Day Name
  1f6c8006-6d32-4bd7-9267-d0568a08bb0b, !- WinterDesignDay Schedule:Day Name
  1f6c8006-6d32-4bd7-9267-d0568a08bb0b, !- CustomDay1 Schedule:Day Name
  1f6c8006-6d32-4bd7-9267-d0568a08bb0b; !- CustomDay2 Schedule:Day Name

Schedule:Week:Daily, HeatAvail_Zone_0_31,
  2ee66fcd-9fef-45a2-9cee-d5d2b2ccdd93, !- Sunday Schedule:Day Name
  fcd7c620-d12f-4264-99fa-12fe2d0fe360, !- Monday Schedule:Day Name
  c7165080-6564-4f63-8eb2-5283c76803c6, !- Tuesday Schedule:Day Name
  8a68abc0-028d-424c-906b-54e3ab565606, !- Wednesday Schedule:Day Name
  662e4420-3d47-4f74-96ef-4a0cf9a2761d, !- Thursday Schedule:Day Name
  f8a50c2a-6260-4063-bcfb-7e7a4cbff610, !- Friday Schedule:Day Name
  d4fb3544-7271-445d-8c74-9fa366beefc6, !- Saturday Schedule:Day Name
  2ee66fcd-9fef-45a2-9cee-d5d2b2ccdd93, !- Holiday Schedule:Day Name
  2ee66fcd-9fef-45a2-9cee-d5d2b2ccdd93, !- SummerDesignDay Schedule:Day Name
  2ee66fcd-9fef-45a2-9cee-d5d2b2ccdd93, !- WinterDesignDay Schedule:Day Name
  2ee66fcd-9fef-45a2-9cee-d5d2b2ccdd93, !- CustomDay1 Schedule:Day Name
  2ee66fcd-9fef-45a2-9cee-d5d2b2ccdd93; !- CustomDay2 Schedule:Day Name

Schedule:Week:Daily, HeatAvail_Zone_0_32,
  54602601-31f4-4de8-bab0-49069784a2b2, !- Sunday Schedule:Day Name
  fb1a1a3e-c698-47bb-9f10-6429565ac78b, !- Monday Schedule:Day Name
  6361670f-08e3-4ce5-9183-c40ed6bec7d6, !- Tuesday Schedule:Day Name
  2d197532-ed74-48b5-a3ea-029b100b3b4c, !- Wednesday Schedule:Day Name
  ef172fd1-1166-4244-9b81-ac9c25ee7140, !- Thursday Schedule:Day Name
  068aa1ea-f92b-4c52-babd-3ba28e088db9, !- Friday Schedule:Day Name
  7be5f930-c9d1-41d1-9f73-8dc014247f47, !- Saturday Schedule:Day Name
  54602601-31f4-4de8-bab0-49069784a2b2, !- Holiday Schedule:Day Name
  54602601-31f4-4de8-bab0-49069784a2b2, !- SummerDesignDay Schedule:Day Name
  54602601-31f4-4de8-bab0-49069784a2b2, !- WinterDesignDay Schedule:Day Name
  54602601-31f4-4de8-bab0-49069784a2b2, !- CustomDay1 Schedule:Day Name
  54602601-31f4-4de8-bab0-49069784a2b2; !- CustomDay2 Schedule:Day Name

Schedule:Week:Daily, HeatAvail_Zone_0_33,
  d479f743-58bb-4381-bc34-0454e4f3726c, !- Sunday Schedule:Day Name
  869f6279-ab4c-45cb-a40c-31db3e045f15, !- Monday Schedule:Day Name
  67f79f5d-879f-44f8-b647-1131f74ce983, !- Tuesday Schedule:Day Name
  971dca29-db39-4082-851a-6dd26ee656e9, !- Wednesday Schedule:Day Name
  42499e71-9635-43f8-97cf-54b25431c190, !- Thursday Schedule:Day Name
  82b83fac-625c-4f48-ae0d-23de262ce1d7, !- Friday Schedule:Day Name
  64895081-95d1-4410-b027-bdd143a5df6e, !- Saturday Schedule:Day Name
  d479f743-58bb-4381-bc34-0454e4f3726c, !- Holiday Schedule:Day Name
  d479f743-58bb-4381-bc34-0454e4f3726c, !- SummerDesignDay Schedule:Day Name
  d479f743-58bb-4381-bc34-0454e4f3726c, !- WinterDesignDay Schedule:Day Name
  d479f743-58bb-4381-bc34-0454e4f3726c, !- CustomDay1 Schedule:Day Name
  d479f743-58bb-4381-bc34-0454e4f3726c; !- CustomDay2 Schedule:Day Name

Schedule:Week:Daily, HeatAvail_Zone_0_34,
  3134f503-972f-4fe3-82ba-8d4e92bfc7da, !- Sunday Schedule:Day Name
  ed6fd3f3-43f2-4ef0-8dd7-7a0b72b31cbb, !- Monday Schedule:Day Name
  0842cef2-874f-47ca-bd6f-c995717f89f5, !- Tuesday Schedule:Day Name
  5261cf2e-85ba-4db6-9ce7-fee0a797b286, !- Wednesday Schedule:Day Name
  cae36862-1c9f-4ffe-9071-76cd90ed5ab1, !- Thursday Schedule:Day Name
  079eeea1-b62c-473a-85e8-522c02ef6f9d, !- Friday Schedule:Day Name
  7e625d85-241e-46f6-b824-82f7e8309bd2, !- Saturday Schedule:Day Name
  3134f503-972f-4fe3-82ba-8d4e92bfc7da, !- Holiday Schedule:Day Name
  3134f503-972f-4fe3-82ba-8d4e92bfc7da, !- SummerDesignDay Schedule:Day Name
  3134f503-972f-4fe3-82ba-8d4e92bfc7da, !- WinterDesignDay Schedule:Day Name
  3134f503-972f-4fe3-82ba-8d4e92bfc7da, !- CustomDay1 Schedule:Day Name
  3134f503-972f-4fe3-82ba-8d4e92bfc7da; !- CustomDay2 Schedule:Day Name

Schedule:Week:Daily, HeatAvail_Zone_0_35,
  ea964e5a-72c8-42ab-b0bd-6840932f00e1, !- Sunday Schedule:Day Name
  7ae45e4a-7fd6-41e5-8a4e-fe4adb9c3dce, !- Monday Schedule:Day Name
  19df4775-b0ea-4311-b4c7-9b47212df40c, !- Tuesday Schedule:Day Name
  d1d83a89-aa02-48bd-bd42-bc8bb0993573, !- Wednesday Schedule:Day Name
  fed7032a-de7c-4f09-9247-478ff5a78e8a, !- Thursday Schedule:Day Name
  8e8bb3cb-8142-4bc1-9217-54d946ff4a27, !- Friday Schedule:Day Name
  7624fc2b-1449-4fb3-8063-622a8346a11d, !- Saturday Schedule:Day Name
  ea964e5a-72c8-42ab-b0bd-6840932f00e1, !- Holiday Schedule:Day Name
  ea964e5a-72c8-42ab-b0bd-6840932f00e1, !- SummerDesignDay Schedule:Day Name
  ea964e5a-72c8-42ab-b0bd-6840932f00e1, !- WinterDesignDay Schedule:Day Name
  ea964e5a-72c8-42ab-b0bd-6840932f00e1, !- CustomDay1 Schedule:Day Name
  ea964e5a-72c8-42ab-b0bd-6840932f00e1; !- CustomDay2 Schedule:Day Name

Schedule:Week:Daily, HeatAvail_Zone_0_36,
  af5e5cc7-e4d6-4050-8d03-adeff9a77ade, !- Sunday Schedule:Day Name
  d6000f41-bb7b-45ed-b57a-afc1b073e2b7, !- Monday Schedule:Day Name
  20a2ea15-0366-4157-a8c0-57d473969917, !- Tuesday Schedule:Day Name
  f07b88ba-faba-4079-b627-1374bd56611b, !- Wednesday Schedule:Day Name
  b20c4fbb-534b-4f67-bcc6-599de88231cd, !- Thursday Schedule:Day Name
  dab0f51d-b6c7-402d-9076-f670d8a8be3a, !- Friday Schedule:Day Name
  2b103ae3-cff9-48dc-a7cd-95ddd8d247a1, !- Saturday Schedule:Day Name
  af5e5cc7-e4d6-4050-8d03-adeff9a77ade, !- Holiday Schedule:Day Name
  af5e5cc7-e4d6-4050-8d03-adeff9a77ade, !- SummerDesignDay Schedule:Day Name
  af5e5cc7-e4d6-4050-8d03-adeff9a77ade, !- WinterDesignDay Schedule:Day Name
  af5e5cc7-e4d6-4050-8d03-adeff9a77ade, !- CustomDay1 Schedule:Day Name
  af5e5cc7-e4d6-4050-8d03-adeff9a77ade; !- CustomDay2 Schedule:Day Name

Schedule:Week:Daily, HeatAvail_Zone_0_37,
  8037efc8-13b6-4a93-94dd-cd9c610bbcd2, !- Sunday Schedule:Day Name
  a3895398-1c9f-41ad-a557-52d5878792ae, !- Monday Schedule:Day Name
  c23acc3e-60bf-4750-8b05-9199dcac2b66, !- Tuesday Schedule:Day Name
  836068ed-9d2b-442f-ad17-65d6e156eb7f, !- Wednesday Schedule:Day Name
  1baf96c9-a5a4-4043-be5b-f3283d23d3d7, !- Thursday Schedule:Day Name
  5dcdb427-e9f7-4689-9180-3caf423e22ed, !- Friday Schedule:Day Name
  7a23f633-3cc0-42d7-81b6-4b350cb7b05f, !- Saturday Schedule:Day Name
  8037efc8-13b6-4a93-94dd-cd9c610bbcd2, !- Holiday Schedule:Day Name
  8037efc8-13b6-4a93-94dd-cd9c610bbcd2, !- SummerDesignDay Schedule:Day Name
  8037efc8-13b6-4a93-94dd-cd9c610bbcd2, !- WinterDesignDay Schedule:Day Name
  8037efc8-13b6-4a93-94dd-cd9c610bbcd2, !- CustomDay1 Schedule:Day Name
  8037efc8-13b6-4a93-94dd-cd9c610bbcd2; !- CustomDay2 Schedule:Day Name

Schedule:Week:Daily, HeatAvail_Zone_0_38,
  93237feb-5df3-46aa-8b07-617937b658ed, !- Sunday Schedule:Day Name
  2111913f-7513-48a7-b5ce-ad86985c307c, !- Monday Schedule:Day Name
  af5e5cc7-e4d6-4050-8d03-adeff9a77ade, !- Tuesday Schedule:Day Name
  62396e1b-6101-4778-9a89-c3df6b012de8, !- Wednesday Schedule:Day Name
  c88f0633-769b-4102-ae75-12d9dbdc8829, !- Thursday Schedule:Day Name
  001a5d9e-2975-4612-a3d7-69e5931aa604, !- Friday Schedule:Day Name
  3fc9ed15-e43c-4b4e-ac0d-8b756d89cf34, !- Saturday Schedule:Day Name
  93237feb-5df3-46aa-8b07-617937b658ed, !- Holiday Schedule:Day Name
  93237feb-5df3-46aa-8b07-617937b658ed, !- SummerDesignDay Schedule:Day Name
  93237feb-5df3-46aa-8b07-617937b658ed, !- WinterDesignDay Schedule:Day Name
  93237feb-5df3-46aa-8b07-617937b658ed, !- CustomDay1 Schedule:Day Name
  93237feb-5df3-46aa-8b07-617937b658ed; !- CustomDay2 Schedule:Day Name

Schedule:Week:Daily, HeatAvail_Zone_0_39,
  d748a229-17c4-4497-a2ae-3035c432b4ba, !- Sunday Schedule:Day Name
  7048c016-b3cc-4d30-b7a2-e82832680144, !- Monday Schedule:Day Name
  45178cf4-77f9-40aa-a0a4-11b28ac7ef65, !- Tuesday Schedule:Day Name
  af41c58c-a08e-4e43-bc5d-241de93dec8d, !- Wednesday Schedule:Day Name
  9f03cfd3-7633-41ee-8cfd-2eb55b373d64, !- Thursday Schedule:Day Name
  50c105d0-a097-4d9e-b7de-f51dfab3287e, !- Friday Schedule:Day Name
  8037efc8-13b6-4a93-94dd-cd9c610bbcd2, !- Saturday Schedule:Day Name
  d748a229-17c4-4497-a2ae-3035c432b4ba, !- Holiday Schedule:Day Name
  d748a229-17c4-4497-a2ae-3035c432b4ba, !- SummerDesignDay Schedule:Day Name
  d748a229-17c4-4497-a2ae-3035c432b4ba, !- WinterDesignDay Schedule:Day Name
  d748a229-17c4-4497-a2ae-3035c432b4ba, !- CustomDay1 Schedule:Day Name
  d748a229-17c4-4497-a2ae-3035c432b4ba; !- CustomDay2 Schedule:Day Name

Schedule:Week:Daily, HeatAvail_Zone_0_40,
  883197e9-7c75-4b18-a137-2211aa266f75, !- Sunday Schedule:Day Name
  a7bd0efe-3aa0-41ad-a862-0c0766c6b48d, !- Monday Schedule:Day Name
  c2976b59-a9d1-4ec2-afd8-5a25a852f813, !- Tuesday Schedule:Day Name
  0892341c-ce22-48bf-b2d7-a6b54bea3fca, !- Wednesday Schedule:Day Name
  0810e71b-70c5-4420-88cf-15ec6798d871, !- Thursday Schedule:Day Name
  349f065c-2187-4dc3-b9d1-56dd459cd3aa, !- Friday Schedule:Day Name
  01a71e10-1e50-47e8-9dee-a916c16c638e, !- Saturday Schedule:Day Name
  883197e9-7c75-4b18-a137-2211aa266f75, !- Holiday Schedule:Day Name
  883197e9-7c75-4b18-a137-2211aa266f75, !- SummerDesignDay Schedule:Day Name
  883197e9-7c75-4b18-a137-2211aa266f75, !- WinterDesignDay Schedule:Day Name
  883197e9-7c75-4b18-a137-2211aa266f75, !- CustomDay1 Schedule:Day Name
  883197e9-7c75-4b18-a137-2211aa266f75; !- CustomDay2 Schedule:Day Name

Schedule:Week:Daily, HeatAvail_Zone_0_41,
  00c0e0ef-4640-43c7-a598-4a9e97edaa6d, !- Sunday Schedule:Day Name
  9f40d702-859b-4665-b72c-3fe96d7343c0, !- Monday Schedule:Day Name
  86c1b371-93d3-48e4-a207-f1c1352b0e07, !- Tuesday Schedule:Day Name
  cd0a9f9b-4dd7-42b7-b076-0355e52e6f7b, !- Wednesday Schedule:Day Name
  d67b88e1-e680-47cd-8d1c-4d1d765bc77f, !- Thursday Schedule:Day Name
  e2fff377-7aec-4250-9183-b298a2f973d8, !- Friday Schedule:Day Name
  f14ff8f6-1366-4599-b910-1c5d2465ca29, !- Saturday Schedule:Day Name
  00c0e0ef-4640-43c7-a598-4a9e97edaa6d, !- Holiday Schedule:Day Name
  00c0e0ef-4640-43c7-a598-4a9e97edaa6d, !- SummerDesignDay Schedule:Day Name
  00c0e0ef-4640-43c7-a598-4a9e97edaa6d, !- WinterDesignDay Schedule:Day Name
  00c0e0ef-4640-43c7-a598-4a9e97edaa6d, !- CustomDay1 Schedule:Day Name
  00c0e0ef-4640-43c7-a598-4a9e97edaa6d; !- CustomDay2 Schedule:Day Name

Schedule:Week:Daily, HeatAvail_Zone_0_42,
  5c89464c-5ef5-470d-8494-ad207c1193eb, !- Sunday Schedule:Day Name
  70fccbbf-0968-4144-81c4-213cfebb1410, !- Monday Schedule:Day Name
  6a72401a-39b8-4c8e-8b0f-e18fc8ead1de, !- Tuesday Schedule:Day Name
  08ea07bc-ec12-43a9-b5e9-4255b164943a, !- Wednesday Schedule:Day Name
  10e9fb05-1858-4299-a879-61cf543e850c, !- Thursday Schedule:Day Name
  482c0ff1-a1cf-4518-9a9b-c9fd94c742e4, !- Friday Schedule:Day Name
  971f1f81-7ffb-4225-a188-1d66d3d201fa, !- Saturday Schedule:Day Name
  5c89464c-5ef5-470d-8494-ad207c1193eb, !- Holiday Schedule:Day Name
  5c89464c-5ef5-470d-8494-ad207c1193eb, !- SummerDesignDay Schedule:Day Name
  5c89464c-5ef5-470d-8494-ad207c1193eb, !- WinterDesignDay Schedule:Day Name
  5c89464c-5ef5-470d-8494-ad207c1193eb, !- CustomDay1 Schedule:Day Name
  5c89464c-5ef5-470d-8494-ad207c1193eb; !- CustomDay2 Schedule:Day Name

Schedule:Week:Daily, HeatAvail_Zone_0_43,
  6005d886-9535-43e2-8214-16ed1c354114, !- Sunday Schedule:Day Name
  fb266e95-20a3-4bcf-bbe1-b2c024e0e2b5, !- Monday Schedule:Day Name
  c7bf4c7d-8060-4b6f-adbe-915409cfed54, !- Tuesday Schedule:Day Name
  321755bc-5975-4af5-b1da-08a8e318b26e, !- Wednesday Schedule:Day Name
  27c04f71-bc10-47cd-96d5-273982dcbd55, !- Thursday Schedule:Day Name
  4fe47908-5490-47fc-b963-a5acf1d7db7e, !- Friday Schedule:Day Name
  7509aeb8-b5e9-4c74-ac1f-85b5df4f7c3a, !- Saturday Schedule:Day Name
  6005d886-9535-43e2-8214-16ed1c354114, !- Holiday Schedule:Day Name
  6005d886-9535-43e2-8214-16ed1c354114, !- SummerDesignDay Schedule:Day Name
  6005d886-9535-43e2-8214-16ed1c354114, !- WinterDesignDay Schedule:Day Name
  6005d886-9535-43e2-8214-16ed1c354114, !- CustomDay1 Schedule:Day Name
  6005d886-9535-43e2-8214-16ed1c354114; !- CustomDay2 Schedule:Day Name

Schedule:Week:Daily, HeatAvail_Zone_0_44,
  8524b59a-4086-4eb9-a3a3-9c11016325d2, !- Sunday Schedule:Day Name
  33232023-d3bc-4167-9908-7f5fb7bc4845, !- Monday Schedule:Day Name
  fc63d4ab-520f-4892-8535-8a5b19853f97, !- Tuesday Schedule:Day Name
  529c80a2-adcc-425c-9c7a-9e4ea92c5ad0, !- Wednesday Schedule:Day Name
  361a62d4-4483-44e2-8178-8ae958f5a9d6, !- Thursday Schedule:Day Name
  d39a0a2d-9745-449f-9744-d5c12fb151a7, !- Friday Schedule:Day Name
  eba83cb3-639c-4d5a-bba0-65026861de94, !- Saturday Schedule:Day Name
  8524b59a-4086-4eb9-a3a3-9c11016325d2, !- Holiday Schedule:Day Name
  8524b59a-4086-4eb9-a3a3-9c11016325d2, !- SummerDesignDay Schedule:Day Name
  8524b59a-4086-4eb9-a3a3-9c11016325d2, !- WinterDesignDay Schedule:Day Name
  8524b59a-4086-4eb9-a3a3-9c11016325d2, !- CustomDay1 Schedule:Day Name
  8524b59a-4086-4eb9-a3a3-9c11016325d2; !- CustomDay2 Schedule:Day Name

Schedule:Week:Daily, HeatAvail_Zone_0_45,
  529897b0-7851-4804-9490-ac1e49f6673f, !- Sunday Schedule:Day Name
  6bf10be0-f6d1-42b2-b7f7-fee7ecca2194, !- Monday Schedule:Day Name
  8c1eacb8-60e0-437f-9c00-406e7754e0a1, !- Tuesday Schedule:Day Name
  ce02b5cd-0b87-43e5-8d81-d91c88fad177, !- Wednesday Schedule:Day Name
  45178cf4-77f9-40aa-a0a4-11b28ac7ef65, !- Thursday Schedule:Day Name
  4a8131e1-6b61-40b7-be8c-de09692f1780, !- Friday Schedule:Day Name
  529897b0-7851-4804-9490-ac1e49f6673f, !- Saturday Schedule:Day Name
  529897b0-7851-4804-9490-ac1e49f6673f, !- Holiday Schedule:Day Name
  529897b0-7851-4804-9490-ac1e49f6673f, !- SummerDesignDay Schedule:Day Name
  529897b0-7851-4804-9490-ac1e49f6673f, !- WinterDesignDay Schedule:Day Name
  529897b0-7851-4804-9490-ac1e49f6673f, !- CustomDay1 Schedule:Day Name
  529897b0-7851-4804-9490-ac1e49f6673f; !- CustomDay2 Schedule:Day Name

Schedule:Week:Daily, HeatAvail_Zone_0_46,
  a92963a4-cdb5-4605-91ce-c7ecaa5e8ee2, !- Sunday Schedule:Day Name
  70fccbbf-0968-4144-81c4-213cfebb1410, !- Monday Schedule:Day Name
  60a5d225-296d-4afc-ad11-c7ede8f63fac, !- Tuesday Schedule:Day Name
  05a610c2-0fe3-448e-b41f-ef2fc4f267a0, !- Wednesday Schedule:Day Name
  741097d7-baff-4054-969c-272c18da0d28, !- Thursday Schedule:Day Name
  894fad8a-9db2-4cf0-9b25-e19f91a4054e, !- Friday Schedule:Day Name
  4e647661-89a2-4b39-a766-581725928f1c, !- Saturday Schedule:Day Name
  a92963a4-cdb5-4605-91ce-c7ecaa5e8ee2, !- Holiday Schedule:Day Name
  a92963a4-cdb5-4605-91ce-c7ecaa5e8ee2, !- SummerDesignDay Schedule:Day Name
  a92963a4-cdb5-4605-91ce-c7ecaa5e8ee2, !- WinterDesignDay Schedule:Day Name
  a92963a4-cdb5-4605-91ce-c7ecaa5e8ee2, !- CustomDay1 Schedule:Day Name
  a92963a4-cdb5-4605-91ce-c7ecaa5e8ee2; !- CustomDay2 Schedule:Day Name

Schedule:Week:Daily, HeatAvail_Zone_0_47,
  4b6ed41e-87c7-4975-a053-4426fd22b8bb, !- Sunday Schedule:Day Name
  bd449fe4-415f-4b3c-8c99-a05e91d1a4a4, !- Monday Schedule:Day Name
  4c9fed97-f1c1-4f52-93cf-6e3ebb21d123, !- Tuesday Schedule:Day Name
  90e3bf91-1fac-41b0-8900-77a460dd330f, !- Wednesday Schedule:Day Name
  81f41662-e9ac-4eb1-b85d-5b27cc855202, !- Thursday Schedule:Day Name
  72c3588e-b2e9-4518-9183-511a012e489a, !- Friday Schedule:Day Name
  058802b1-c408-489d-8eb6-82654434e169, !- Saturday Schedule:Day Name
  4b6ed41e-87c7-4975-a053-4426fd22b8bb, !- Holiday Schedule:Day Name
  4b6ed41e-87c7-4975-a053-4426fd22b8bb, !- SummerDesignDay Schedule:Day Name
  4b6ed41e-87c7-4975-a053-4426fd22b8bb, !- WinterDesignDay Schedule:Day Name
  4b6ed41e-87c7-4975-a053-4426fd22b8bb, !- CustomDay1 Schedule:Day Name
  4b6ed41e-87c7-4975-a053-4426fd22b8bb; !- CustomDay2 Schedule:Day Name

Schedule:Week:Daily, HeatAvail_Zone_0_48,
  c893bc1b-9ab6-4618-9526-c9d7948028e1, !- Sunday Schedule:Day Name
  2d3622f6-77fb-4f19-83ce-4f29eb6027ad, !- Monday Schedule:Day Name
  485f56f1-57ec-4dbc-a7b3-1c70517bfc66, !- Tuesday Schedule:Day Name
  f2aed9a4-388b-497b-9736-4f8f69007e10, !- Wednesday Schedule:Day Name
  3aec51c0-ffc0-4bed-9820-b9f1594e9715, !- Thursday Schedule:Day Name
  2b439630-06c0-43d1-b733-c1b6edee79ff, !- Friday Schedule:Day Name
  1354364f-3d47-441f-baaf-d91082a93f77, !- Saturday Schedule:Day Name
  c893bc1b-9ab6-4618-9526-c9d7948028e1, !- Holiday Schedule:Day Name
  c893bc1b-9ab6-4618-9526-c9d7948028e1, !- SummerDesignDay Schedule:Day Name
  c893bc1b-9ab6-4618-9526-c9d7948028e1, !- WinterDesignDay Schedule:Day Name
  c893bc1b-9ab6-4618-9526-c9d7948028e1, !- CustomDay1 Schedule:Day Name
  c893bc1b-9ab6-4618-9526-c9d7948028e1; !- CustomDay2 Schedule:Day Name

Schedule:Week:Daily, HeatAvail_Zone_0_49,
  043a86aa-8b78-41f9-9b1e-acb706614a46, !- Sunday Schedule:Day Name
  6a1fb187-319f-4c84-bc8c-24fb97a2dfa3, !- Monday Schedule:Day Name
  a632ed9a-5de7-4d2a-9650-94074f019fd4, !- Tuesday Schedule:Day Name
  3b8062e7-37c0-42ef-9213-e2c9e8404624, !- Wednesday Schedule:Day Name
  3b07df94-8bae-425c-907d-ec27d7f912fc, !- Thursday Schedule:Day Name
  7be9cbd2-a441-4429-bd23-b447bb17e9a1, !- Friday Schedule:Day Name
  7c9938da-5bc3-4155-9f17-6dbf6999afb5, !- Saturday Schedule:Day Name
  043a86aa-8b78-41f9-9b1e-acb706614a46, !- Holiday Schedule:Day Name
  043a86aa-8b78-41f9-9b1e-acb706614a46, !- SummerDesignDay Schedule:Day Name
  043a86aa-8b78-41f9-9b1e-acb706614a46, !- WinterDesignDay Schedule:Day Name
  043a86aa-8b78-41f9-9b1e-acb706614a46, !- CustomDay1 Schedule:Day Name
  043a86aa-8b78-41f9-9b1e-acb706614a46; !- CustomDay2 Schedule:Day Name

Schedule:Week:Daily, HeatAvail_Zone_0_50,
  149cf891-3990-4c32-920f-f7e48fb2aa7d, !- Sunday Schedule:Day Name
  c2976b59-a9d1-4ec2-afd8-5a25a852f813, !- Monday Schedule:Day Name
  f20793a5-f3a4-45ea-858c-464f45aebaeb, !- Tuesday Schedule:Day Name
  918cd881-32ed-44fa-84e1-0d95cc65e6a6, !- Wednesday Schedule:Day Name
  a7388b1d-e5d5-446e-9b3c-e9680b62e304, !- Thursday Schedule:Day Name
  48e2d8e6-c764-4309-9400-535a4b362951, !- Friday Schedule:Day Name
  b8feaf6b-9232-4fb5-8901-8b4871c860c7, !- Saturday Schedule:Day Name
  149cf891-3990-4c32-920f-f7e48fb2aa7d, !- Holiday Schedule:Day Name
  149cf891-3990-4c32-920f-f7e48fb2aa7d, !- SummerDesignDay Schedule:Day Name
  149cf891-3990-4c32-920f-f7e48fb2aa7d, !- WinterDesignDay Schedule:Day Name
  149cf891-3990-4c32-920f-f7e48fb2aa7d, !- CustomDay1 Schedule:Day Name
  149cf891-3990-4c32-920f-f7e48fb2aa7d; !- CustomDay2 Schedule:Day Name

Schedule:Week:Daily, HeatAvail_Zone_0_51,
  485ce407-0896-49d2-8bdb-d863cf701a37, !- Sunday Schedule:Day Name
  77e688b3-1c47-4fa8-a150-bdfd9f7a6f05, !- Monday Schedule:Day Name
  ae164842-401a-4343-b31c-0fd7bb1224be, !- Tuesday Schedule:Day Name
  aca1a674-1583-4169-b70b-1a5a21e13e0d, !- Wednesday Schedule:Day Name
  71cadaa5-eb0e-4c82-bfb7-05770e92396e, !- Thursday Schedule:Day Name
  7fed7190-ed49-4405-b641-6bd42e090a6c, !- Friday Schedule:Day Name
  f8a50c2a-6260-4063-bcfb-7e7a4cbff610, !- Saturday Schedule:Day Name
  485ce407-0896-49d2-8bdb-d863cf701a37, !- Holiday Schedule:Day Name
  485ce407-0896-49d2-8bdb-d863cf701a37, !- SummerDesignDay Schedule:Day Name
  485ce407-0896-49d2-8bdb-d863cf701a37, !- WinterDesignDay Schedule:Day Name
  485ce407-0896-49d2-8bdb-d863cf701a37, !- CustomDay1 Schedule:Day Name
  485ce407-0896-49d2-8bdb-d863cf701a37; !- CustomDay2 Schedule:Day Name

Schedule:Week:Daily, HeatAvail_Zone_0_52,
  cba0dbdb-88fe-4b2a-b0a5-debe7df2df22, !- Sunday Schedule:Day Name
  cba0dbdb-88fe-4b2a-b0a5-debe7df2df22, !- Monday Schedule:Day Name
  cba0dbdb-88fe-4b2a-b0a5-debe7df2df22, !- Tuesday Schedule:Day Name
  cba0dbdb-88fe-4b2a-b0a5-debe7df2df22, !- Wednesday Schedule:Day Name
  cba0dbdb-88fe-4b2a-b0a5-debe7df2df22, !- Thursday Schedule:Day Name
  cba0dbdb-88fe-4b2a-b0a5-debe7df2df22, !- Friday Schedule:Day Name
  cba0dbdb-88fe-4b2a-b0a5-debe7df2df22, !- Saturday Schedule:Day Name
  cba0dbdb-88fe-4b2a-b0a5-debe7df2df22, !- Holiday Schedule:Day Name
  cba0dbdb-88fe-4b2a-b0a5-debe7df2df22, !- SummerDesignDay Schedule:Day Name
  cba0dbdb-88fe-4b2a-b0a5-debe7df2df22, !- WinterDesignDay Schedule:Day Name
  cba0dbdb-88fe-4b2a-b0a5-debe7df2df22, !- CustomDay1 Schedule:Day Name
  cba0dbdb-88fe-4b2a-b0a5-debe7df2df22; !- CustomDay2 Schedule:Day Name


Schedule:Year,CoolAvail_Zone_0,
Fraction,
CoolAvail_Zone_0_0,1,1,1,7, 
CoolAvail_Zone_0_1,1,8,1,14, 
CoolAvail_Zone_0_2,1,15,1,21, 
CoolAvail_Zone_0_3,1,22,1,28, 
CoolAvail_Zone_0_4,1,29,2,4, 
CoolAvail_Zone_0_5,2,5,2,11, 
CoolAvail_Zone_0_6,2,12,2,18, 
CoolAvail_Zone_0_7,2,19,2,25, 
CoolAvail_Zone_0_8,2,26,3,4, 
CoolAvail_Zone_0_9,3,5,3,11, 
CoolAvail_Zone_0_10,3,12,3,18, 
CoolAvail_Zone_0_11,3,19,3,25, 
CoolAvail_Zone_0_12,3,26,4,1, 
CoolAvail_Zone_0_13,4,2,4,8, 
CoolAvail_Zone_0_14,4,9,4,15, 
CoolAvail_Zone_0_15,4,16,4,22, 
CoolAvail_Zone_0_16,4,23,4,29, 
CoolAvail_Zone_0_17,4,30,5,6, 
CoolAvail_Zone_0_18,5,7,5,13, 
CoolAvail_Zone_0_19,5,14,5,20, 
CoolAvail_Zone_0_20,5,21,5,27, 
CoolAvail_Zone_0_21,5,28,6,3, 
CoolAvail_Zone_0_22,6,4,6,10, 
CoolAvail_Zone_0_23,6,11,6,17, 
CoolAvail_Zone_0_24,6,18,6,24, 
CoolAvail_Zone_0_25,6,25,7,1, 
CoolAvail_Zone_0_26,7,2,7,8, 
CoolAvail_Zone_0_27,7,9,7,15, 
CoolAvail_Zone_0_28,7,16,7,22, 
CoolAvail_Zone_0_29,7,23,7,29, 
CoolAvail_Zone_0_30,7,30,8,5, 
CoolAvail_Zone_0_31,8,6,8,12, 
CoolAvail_Zone_0_32,8,13,8,19, 
CoolAvail_Zone_0_33,8,20,8,26, 
CoolAvail_Zone_0_34,8,27,9,2, 
CoolAvail_Zone_0_35,9,3,9,9, 
CoolAvail_Zone_0_36,9,10,9,16, 
CoolAvail_Zone_0_37,9,17,9,23, 
CoolAvail_Zone_0_38,9,24,9,30, 
CoolAvail_Zone_0_39,10,1,10,7, 
CoolAvail_Zone_0_40,10,8,10,14, 
CoolAvail_Zone_0_41,10,15,10,21, 
CoolAvail_Zone_0_42,10,22,10,28, 
CoolAvail_Zone_0_43,10,29,11,4, 
CoolAvail_Zone_0_44,11,5,11,11, 
CoolAvail_Zone_0_45,11,12,11,18, 
CoolAvail_Zone_0_46,11,19,11,25, 
CoolAvail_Zone_0_47,11,26,12,2, 
CoolAvail_Zone_0_48,12,3,12,9, 
CoolAvail_Zone_0_49,12,10,12,16, 
CoolAvail_Zone_0_50,12,17,12,23, 
CoolAvail_Zone_0_51,12,24,12,30, 
CoolAvail_Zone_0_52,12,31,12,31;

Schedule:Week:Daily, CoolAvail_Zone_0_0,
  8618f100-70c2-48df-87e0-fab351c34c6b, !- Sunday Schedule:Day Name
  5dcdb427-e9f7-4689-9180-3caf423e22ed, !- Monday Schedule:Day Name
  81afa01e-09a0-48f0-80c4-d51ce1cab127, !- Tuesday Schedule:Day Name
  3cd3efd9-c042-47ce-b340-cc821a576093, !- Wednesday Schedule:Day Name
  1f0a6719-7bb2-40ba-813e-320f98ae352d, !- Thursday Schedule:Day Name
  ba2ee583-8b1e-4da9-bea0-6898974df253, !- Friday Schedule:Day Name
  926130ae-f225-4a34-92c9-1cb046bf1eec, !- Saturday Schedule:Day Name
  8618f100-70c2-48df-87e0-fab351c34c6b, !- Holiday Schedule:Day Name
  8618f100-70c2-48df-87e0-fab351c34c6b, !- SummerDesignDay Schedule:Day Name
  8618f100-70c2-48df-87e0-fab351c34c6b, !- WinterDesignDay Schedule:Day Name
  8618f100-70c2-48df-87e0-fab351c34c6b, !- CustomDay1 Schedule:Day Name
  8618f100-70c2-48df-87e0-fab351c34c6b; !- CustomDay2 Schedule:Day Name

Schedule:Week:Daily, CoolAvail_Zone_0_1,
  19df4775-b0ea-4311-b4c7-9b47212df40c, !- Sunday Schedule:Day Name
  a4de81bb-62dd-413f-b347-54048df0ec3b, !- Monday Schedule:Day Name
  14815d8d-3afd-4f05-9184-e9a77283cc26, !- Tuesday Schedule:Day Name
  33611082-0976-46d1-b902-5b496b6874f4, !- Wednesday Schedule:Day Name
  253c2796-c64f-472f-b25c-3e1240d7e6a8, !- Thursday Schedule:Day Name
  8b90107e-4638-441a-9e95-5783319c763c, !- Friday Schedule:Day Name
  02756fd2-63df-4c34-a473-0fff2fd6183c, !- Saturday Schedule:Day Name
  19df4775-b0ea-4311-b4c7-9b47212df40c, !- Holiday Schedule:Day Name
  19df4775-b0ea-4311-b4c7-9b47212df40c, !- SummerDesignDay Schedule:Day Name
  19df4775-b0ea-4311-b4c7-9b47212df40c, !- WinterDesignDay Schedule:Day Name
  19df4775-b0ea-4311-b4c7-9b47212df40c, !- CustomDay1 Schedule:Day Name
  19df4775-b0ea-4311-b4c7-9b47212df40c; !- CustomDay2 Schedule:Day Name

Schedule:Week:Daily, CoolAvail_Zone_0_2,
  908a2c86-dd1e-4717-bf7e-8c26c4dd02b6, !- Sunday Schedule:Day Name
  10cddf50-3af0-41ed-9158-3e58b74c72fd, !- Monday Schedule:Day Name
  253c2796-c64f-472f-b25c-3e1240d7e6a8, !- Tuesday Schedule:Day Name
  0d1e05ee-c032-4751-bd17-35229dda24f7, !- Wednesday Schedule:Day Name
  5dcdb427-e9f7-4689-9180-3caf423e22ed, !- Thursday Schedule:Day Name
  aa80f693-747a-49d9-91b8-8ea95c56ce05, !- Friday Schedule:Day Name
  87368852-f780-41ab-9086-c1382deee484, !- Saturday Schedule:Day Name
  908a2c86-dd1e-4717-bf7e-8c26c4dd02b6, !- Holiday Schedule:Day Name
  908a2c86-dd1e-4717-bf7e-8c26c4dd02b6, !- SummerDesignDay Schedule:Day Name
  908a2c86-dd1e-4717-bf7e-8c26c4dd02b6, !- WinterDesignDay Schedule:Day Name
  908a2c86-dd1e-4717-bf7e-8c26c4dd02b6, !- CustomDay1 Schedule:Day Name
  908a2c86-dd1e-4717-bf7e-8c26c4dd02b6; !- CustomDay2 Schedule:Day Name

Schedule:Week:Daily, CoolAvail_Zone_0_3,
  77587a13-7089-4d45-ab40-5d45ae6bfd6d, !- Sunday Schedule:Day Name
  1d77efd4-25ae-47c1-adf6-4d311e70798c, !- Monday Schedule:Day Name
  6671bfd2-5b98-40d8-9327-8cbcd87165f1, !- Tuesday Schedule:Day Name
  da6b72e5-e97a-4292-a2b7-513a6e8a3d11, !- Wednesday Schedule:Day Name
  2596d5a2-b66d-4e24-9263-ea2e18f87898, !- Thursday Schedule:Day Name
  8618f100-70c2-48df-87e0-fab351c34c6b, !- Friday Schedule:Day Name
  f04ce753-6cfe-4115-82ff-bbb9d4f8620e, !- Saturday Schedule:Day Name
  77587a13-7089-4d45-ab40-5d45ae6bfd6d, !- Holiday Schedule:Day Name
  77587a13-7089-4d45-ab40-5d45ae6bfd6d, !- SummerDesignDay Schedule:Day Name
  77587a13-7089-4d45-ab40-5d45ae6bfd6d, !- WinterDesignDay Schedule:Day Name
  77587a13-7089-4d45-ab40-5d45ae6bfd6d, !- CustomDay1 Schedule:Day Name
  77587a13-7089-4d45-ab40-5d45ae6bfd6d; !- CustomDay2 Schedule:Day Name

Schedule:Week:Daily, CoolAvail_Zone_0_4,
  cecc4cf8-ca63-4d31-9b9c-6714284e592c, !- Sunday Schedule:Day Name
  3dd9e1e0-8daa-4f08-a023-9c19800cc0b2, !- Monday Schedule:Day Name
  0a42ac73-97ca-4d90-9bbe-a0f31409f58c, !- Tuesday Schedule:Day Name
  f5b21968-f33b-499f-8c27-d37bb032ee17, !- Wednesday Schedule:Day Name
  aac78e26-21a9-4344-93f1-82c4f8052330, !- Thursday Schedule:Day Name
  7dc33dc8-4d07-41df-bb0f-79f8a1f0e58d, !- Friday Schedule:Day Name
  3dd9e1e0-8daa-4f08-a023-9c19800cc0b2, !- Saturday Schedule:Day Name
  cecc4cf8-ca63-4d31-9b9c-6714284e592c, !- Holiday Schedule:Day Name
  cecc4cf8-ca63-4d31-9b9c-6714284e592c, !- SummerDesignDay Schedule:Day Name
  cecc4cf8-ca63-4d31-9b9c-6714284e592c, !- WinterDesignDay Schedule:Day Name
  cecc4cf8-ca63-4d31-9b9c-6714284e592c, !- CustomDay1 Schedule:Day Name
  cecc4cf8-ca63-4d31-9b9c-6714284e592c; !- CustomDay2 Schedule:Day Name

Schedule:Week:Daily, CoolAvail_Zone_0_5,
  173a3c5b-6f92-4ca6-9f0e-244ffac931a2, !- Sunday Schedule:Day Name
  ffa688da-0411-44dd-9d70-72703ae6793f, !- Monday Schedule:Day Name
  4a292ec0-405d-4173-9fe5-0a00ddd43b25, !- Tuesday Schedule:Day Name
  4805e92b-9692-4833-b393-aed0ec1af40f, !- Wednesday Schedule:Day Name
  e297b3e2-62d7-4102-b660-d1e9a6a9a5d5, !- Thursday Schedule:Day Name
  2ec5f2f4-a667-483b-a77b-90ec7af7d53f, !- Friday Schedule:Day Name
  d9318bd6-45e4-4c6e-a6b2-45c7dccfe036, !- Saturday Schedule:Day Name
  173a3c5b-6f92-4ca6-9f0e-244ffac931a2, !- Holiday Schedule:Day Name
  173a3c5b-6f92-4ca6-9f0e-244ffac931a2, !- SummerDesignDay Schedule:Day Name
  173a3c5b-6f92-4ca6-9f0e-244ffac931a2, !- WinterDesignDay Schedule:Day Name
  173a3c5b-6f92-4ca6-9f0e-244ffac931a2, !- CustomDay1 Schedule:Day Name
  173a3c5b-6f92-4ca6-9f0e-244ffac931a2; !- CustomDay2 Schedule:Day Name

Schedule:Week:Daily, CoolAvail_Zone_0_6,
  3624dfa3-d9d9-498d-9e20-06e8e00cf470, !- Sunday Schedule:Day Name
  67b5a175-1fd3-4d4a-983d-e3cced3edf27, !- Monday Schedule:Day Name
  cdb81cbb-fde1-4456-a103-892fadcdade4, !- Tuesday Schedule:Day Name
  0a27d46e-0025-4ed1-a9ba-e2fb4c2d1fe4, !- Wednesday Schedule:Day Name
  8fdb9f43-f98f-409e-b0d1-73a9be143908, !- Thursday Schedule:Day Name
  b5191b74-66d0-43f3-9acf-947efe61db5a, !- Friday Schedule:Day Name
  fed7032a-de7c-4f09-9247-478ff5a78e8a, !- Saturday Schedule:Day Name
  3624dfa3-d9d9-498d-9e20-06e8e00cf470, !- Holiday Schedule:Day Name
  3624dfa3-d9d9-498d-9e20-06e8e00cf470, !- SummerDesignDay Schedule:Day Name
  3624dfa3-d9d9-498d-9e20-06e8e00cf470, !- WinterDesignDay Schedule:Day Name
  3624dfa3-d9d9-498d-9e20-06e8e00cf470, !- CustomDay1 Schedule:Day Name
  3624dfa3-d9d9-498d-9e20-06e8e00cf470; !- CustomDay2 Schedule:Day Name

Schedule:Week:Daily, CoolAvail_Zone_0_7,
  c8127eb5-13be-46a6-8e1c-8ab251adc347, !- Sunday Schedule:Day Name
  c5da146a-7fe7-4e89-8fdb-23770534d285, !- Monday Schedule:Day Name
  e9ce64f4-f0d0-4e34-a757-67552803a17d, !- Tuesday Schedule:Day Name
  5fae9a4a-0183-4bba-bc4b-251889534ca4, !- Wednesday Schedule:Day Name
  2929a138-1660-4b55-90c0-9f4d0cf14264, !- Thursday Schedule:Day Name
  a2806f5e-cc7e-4ab3-b8b5-036361ad0be6, !- Friday Schedule:Day Name
  6d34f87d-404a-4eea-a31d-9aa5e30c93dc, !- Saturday Schedule:Day Name
  c8127eb5-13be-46a6-8e1c-8ab251adc347, !- Holiday Schedule:Day Name
  c8127eb5-13be-46a6-8e1c-8ab251adc347, !- SummerDesignDay Schedule:Day Name
  c8127eb5-13be-46a6-8e1c-8ab251adc347, !- WinterDesignDay Schedule:Day Name
  c8127eb5-13be-46a6-8e1c-8ab251adc347, !- CustomDay1 Schedule:Day Name
  c8127eb5-13be-46a6-8e1c-8ab251adc347; !- CustomDay2 Schedule:Day Name

Schedule:Week:Daily, CoolAvail_Zone_0_8,
  8598695d-0908-4ae5-b45c-1ec5c0ce0dd9, !- Sunday Schedule:Day Name
  47a935ae-f23d-42b5-b13a-a75eb6c7574c, !- Monday Schedule:Day Name
  9ea4c9e5-dcff-42fc-a5e0-ffb2a21bcde0, !- Tuesday Schedule:Day Name
  6aa7458e-ba47-4ebb-bbac-355ceaf917ac, !- Wednesday Schedule:Day Name
  13fd4666-c351-46ba-b242-2af52b7be5ee, !- Thursday Schedule:Day Name
  b2b72998-069d-4b87-8486-3bfb9409d13a, !- Friday Schedule:Day Name
  6bf10be0-f6d1-42b2-b7f7-fee7ecca2194, !- Saturday Schedule:Day Name
  8598695d-0908-4ae5-b45c-1ec5c0ce0dd9, !- Holiday Schedule:Day Name
  8598695d-0908-4ae5-b45c-1ec5c0ce0dd9, !- SummerDesignDay Schedule:Day Name
  8598695d-0908-4ae5-b45c-1ec5c0ce0dd9, !- WinterDesignDay Schedule:Day Name
  8598695d-0908-4ae5-b45c-1ec5c0ce0dd9, !- CustomDay1 Schedule:Day Name
  8598695d-0908-4ae5-b45c-1ec5c0ce0dd9; !- CustomDay2 Schedule:Day Name

Schedule:Week:Daily, CoolAvail_Zone_0_9,
  459521f2-5a61-4250-bef6-1112113012dd, !- Sunday Schedule:Day Name
  2292208f-2845-429b-bb48-36c8d8b4e48c, !- Monday Schedule:Day Name
  6bf10be0-f6d1-42b2-b7f7-fee7ecca2194, !- Tuesday Schedule:Day Name
  e26118ea-5186-4172-8c6b-a35f60b5b1e5, !- Wednesday Schedule:Day Name
  eec8f66c-e121-4b67-8ecc-62cb04a25d93, !- Thursday Schedule:Day Name
  36c41bda-17ce-4903-9bf4-7aae47858b31, !- Friday Schedule:Day Name
  650e5035-8585-4697-8746-d79a37c8486d, !- Saturday Schedule:Day Name
  459521f2-5a61-4250-bef6-1112113012dd, !- Holiday Schedule:Day Name
  459521f2-5a61-4250-bef6-1112113012dd, !- SummerDesignDay Schedule:Day Name
  459521f2-5a61-4250-bef6-1112113012dd, !- WinterDesignDay Schedule:Day Name
  459521f2-5a61-4250-bef6-1112113012dd, !- CustomDay1 Schedule:Day Name
  459521f2-5a61-4250-bef6-1112113012dd; !- CustomDay2 Schedule:Day Name

Schedule:Week:Daily, CoolAvail_Zone_0_10,
  80749889-dadb-48cb-a655-ff23c6ba5b6a, !- Sunday Schedule:Day Name
  6bf10be0-f6d1-42b2-b7f7-fee7ecca2194, !- Monday Schedule:Day Name
  e0e52828-7cdb-4a90-838a-0c1c23b12183, !- Tuesday Schedule:Day Name
  f0115db6-a71b-4640-92f0-770737d62856, !- Wednesday Schedule:Day Name
  eb66565a-3a0c-45e3-abf2-48608562d179, !- Thursday Schedule:Day Name
  9f6e1a9c-7deb-41ad-bae1-43a319a2527a, !- Friday Schedule:Day Name
  3c8e89a2-9075-471a-a763-be3aea2d72cb, !- Saturday Schedule:Day Name
  80749889-dadb-48cb-a655-ff23c6ba5b6a, !- Holiday Schedule:Day Name
  80749889-dadb-48cb-a655-ff23c6ba5b6a, !- SummerDesignDay Schedule:Day Name
  80749889-dadb-48cb-a655-ff23c6ba5b6a, !- WinterDesignDay Schedule:Day Name
  80749889-dadb-48cb-a655-ff23c6ba5b6a, !- CustomDay1 Schedule:Day Name
  80749889-dadb-48cb-a655-ff23c6ba5b6a; !- CustomDay2 Schedule:Day Name

Schedule:Week:Daily, CoolAvail_Zone_0_11,
  6bf10be0-f6d1-42b2-b7f7-fee7ecca2194, !- Sunday Schedule:Day Name
  76036948-5d5f-4298-ab69-2e66044eb0e4, !- Monday Schedule:Day Name
  e2d8618c-8444-4b1f-931d-77fdf4492413, !- Tuesday Schedule:Day Name
  c74881af-9865-479a-9cda-6c12b9aa4081, !- Wednesday Schedule:Day Name
  a92554cf-7a8b-4c7e-beea-d9e539cad856, !- Thursday Schedule:Day Name
  900352b6-8567-41c0-a874-a1ea5300ae36, !- Friday Schedule:Day Name
  8d65c598-f994-4d17-9f80-0806b0623890, !- Saturday Schedule:Day Name
  6bf10be0-f6d1-42b2-b7f7-fee7ecca2194, !- Holiday Schedule:Day Name
  6bf10be0-f6d1-42b2-b7f7-fee7ecca2194, !- SummerDesignDay Schedule:Day Name
  6bf10be0-f6d1-42b2-b7f7-fee7ecca2194, !- WinterDesignDay Schedule:Day Name
  6bf10be0-f6d1-42b2-b7f7-fee7ecca2194, !- CustomDay1 Schedule:Day Name
  6bf10be0-f6d1-42b2-b7f7-fee7ecca2194; !- CustomDay2 Schedule:Day Name

Schedule:Week:Daily, CoolAvail_Zone_0_12,
  baf29dc9-2d8a-46c0-859f-f18bd0da22ab, !- Sunday Schedule:Day Name
  8a6b3492-e083-40c5-aa51-ab8a93dd7cf6, !- Monday Schedule:Day Name
  9b77ef3a-6f8f-4932-9b30-c6e980fc680b, !- Tuesday Schedule:Day Name
  8967aa4d-88cc-4e3d-855a-5997934946f3, !- Wednesday Schedule:Day Name
  ee39d697-00d3-4a7d-a87b-48ae385d2e26, !- Thursday Schedule:Day Name
  f719df47-8246-4c65-84d1-2f92cc272685, !- Friday Schedule:Day Name
  37defae6-4713-40da-ba10-cc5639f9dab6, !- Saturday Schedule:Day Name
  baf29dc9-2d8a-46c0-859f-f18bd0da22ab, !- Holiday Schedule:Day Name
  baf29dc9-2d8a-46c0-859f-f18bd0da22ab, !- SummerDesignDay Schedule:Day Name
  baf29dc9-2d8a-46c0-859f-f18bd0da22ab, !- WinterDesignDay Schedule:Day Name
  baf29dc9-2d8a-46c0-859f-f18bd0da22ab, !- CustomDay1 Schedule:Day Name
  baf29dc9-2d8a-46c0-859f-f18bd0da22ab; !- CustomDay2 Schedule:Day Name

Schedule:Week:Daily, CoolAvail_Zone_0_13,
  445c2965-d68a-4649-92c7-32e51d912d9e, !- Sunday Schedule:Day Name
  17f23b1e-bc73-4d8b-959e-a6c03055f6f0, !- Monday Schedule:Day Name
  5fb45ac4-0577-4554-a574-0de95ce07d0e, !- Tuesday Schedule:Day Name
  b8f263ea-c9af-4f33-bdfd-9ce0bd98058f, !- Wednesday Schedule:Day Name
  24dff24f-8dbf-4efd-9212-9b774f90ba42, !- Thursday Schedule:Day Name
  f611fdf0-2572-43c5-b082-f1eae64a3ce6, !- Friday Schedule:Day Name
  4541d807-e474-402a-903b-ae2befa428d1, !- Saturday Schedule:Day Name
  445c2965-d68a-4649-92c7-32e51d912d9e, !- Holiday Schedule:Day Name
  445c2965-d68a-4649-92c7-32e51d912d9e, !- SummerDesignDay Schedule:Day Name
  445c2965-d68a-4649-92c7-32e51d912d9e, !- WinterDesignDay Schedule:Day Name
  445c2965-d68a-4649-92c7-32e51d912d9e, !- CustomDay1 Schedule:Day Name
  445c2965-d68a-4649-92c7-32e51d912d9e; !- CustomDay2 Schedule:Day Name

Schedule:Week:Daily, CoolAvail_Zone_0_14,
  cf356f11-1212-4417-97fa-0735ca71a9ab, !- Sunday Schedule:Day Name
  f91da99f-00f2-48c4-ae56-cf34869638f3, !- Monday Schedule:Day Name
  d048da0d-5d6e-4f9a-a795-8de3ca902bdf, !- Tuesday Schedule:Day Name
  190d0247-2bda-4784-8e60-7c67e017307d, !- Wednesday Schedule:Day Name
  73c456bc-99ee-4c52-bf99-797e61b6e482, !- Thursday Schedule:Day Name
  de609169-ed74-4ff6-8260-191d73b4bdcc, !- Friday Schedule:Day Name
  54fb2f69-c7c4-4e69-b71f-8d5c25f28460, !- Saturday Schedule:Day Name
  cf356f11-1212-4417-97fa-0735ca71a9ab, !- Holiday Schedule:Day Name
  cf356f11-1212-4417-97fa-0735ca71a9ab, !- SummerDesignDay Schedule:Day Name
  cf356f11-1212-4417-97fa-0735ca71a9ab, !- WinterDesignDay Schedule:Day Name
  cf356f11-1212-4417-97fa-0735ca71a9ab, !- CustomDay1 Schedule:Day Name
  cf356f11-1212-4417-97fa-0735ca71a9ab; !- CustomDay2 Schedule:Day Name

Schedule:Week:Daily, CoolAvail_Zone_0_15,
  5a3077c5-6529-4acc-bf47-0f8893dd8d6c, !- Sunday Schedule:Day Name
  005f949a-5569-4b14-b96d-eb8998b7f2c9, !- Monday Schedule:Day Name
  52e2ade8-1f00-496b-9824-a73b9e2fd094, !- Tuesday Schedule:Day Name
  3b21223f-68a8-4be7-974c-23edd7627b52, !- Wednesday Schedule:Day Name
  700a86a3-c248-472e-a724-58b2bdaea0c0, !- Thursday Schedule:Day Name
  13d69347-03a3-4421-b1a3-e150d12f5152, !- Friday Schedule:Day Name
  03750ff8-abe3-47dc-8a36-8e2b9823c399, !- Saturday Schedule:Day Name
  5a3077c5-6529-4acc-bf47-0f8893dd8d6c, !- Holiday Schedule:Day Name
  5a3077c5-6529-4acc-bf47-0f8893dd8d6c, !- SummerDesignDay Schedule:Day Name
  5a3077c5-6529-4acc-bf47-0f8893dd8d6c, !- WinterDesignDay Schedule:Day Name
  5a3077c5-6529-4acc-bf47-0f8893dd8d6c, !- CustomDay1 Schedule:Day Name
  5a3077c5-6529-4acc-bf47-0f8893dd8d6c; !- CustomDay2 Schedule:Day Name

Schedule:Week:Daily, CoolAvail_Zone_0_16,
  5ab05ab3-b1af-4255-b127-d34ad17933b2, !- Sunday Schedule:Day Name
  e4f44599-e79e-4247-8cb8-fa2dc344c39d, !- Monday Schedule:Day Name
  cba2dbf9-67c6-4c93-a4db-e820dae3204b, !- Tuesday Schedule:Day Name
  873b6a4e-3d96-4138-a12d-423740b44d1e, !- Wednesday Schedule:Day Name
  fcbe0f6d-2377-4457-b210-3fa5220d421b, !- Thursday Schedule:Day Name
  174cbcc6-2b20-4967-a4d4-7bc75d614806, !- Friday Schedule:Day Name
  bb9082ca-1504-4933-822d-fa32c990714c, !- Saturday Schedule:Day Name
  5ab05ab3-b1af-4255-b127-d34ad17933b2, !- Holiday Schedule:Day Name
  5ab05ab3-b1af-4255-b127-d34ad17933b2, !- SummerDesignDay Schedule:Day Name
  5ab05ab3-b1af-4255-b127-d34ad17933b2, !- WinterDesignDay Schedule:Day Name
  5ab05ab3-b1af-4255-b127-d34ad17933b2, !- CustomDay1 Schedule:Day Name
  5ab05ab3-b1af-4255-b127-d34ad17933b2; !- CustomDay2 Schedule:Day Name

Schedule:Week:Daily, CoolAvail_Zone_0_17,
  1a41d748-84e7-4e9f-9eae-29ec90adbabc, !- Sunday Schedule:Day Name
  6f9a280c-f113-4df8-be47-a3bfe5226045, !- Monday Schedule:Day Name
  7c84806f-9c50-4994-b1d5-6df72d261e57, !- Tuesday Schedule:Day Name
  8037efc8-13b6-4a93-94dd-cd9c610bbcd2, !- Wednesday Schedule:Day Name
  c9abe060-4dd1-4f50-8d8c-ecfd4b0bc287, !- Thursday Schedule:Day Name
  e63e00f2-58f7-4067-a124-0d1c072ae056, !- Friday Schedule:Day Name
  d5c8d91d-91c5-4d26-9efd-40254dbc03d1, !- Saturday Schedule:Day Name
  1a41d748-84e7-4e9f-9eae-29ec90adbabc, !- Holiday Schedule:Day Name
  1a41d748-84e7-4e9f-9eae-29ec90adbabc, !- SummerDesignDay Schedule:Day Name
  1a41d748-84e7-4e9f-9eae-29ec90adbabc, !- WinterDesignDay Schedule:Day Name
  1a41d748-84e7-4e9f-9eae-29ec90adbabc, !- CustomDay1 Schedule:Day Name
  1a41d748-84e7-4e9f-9eae-29ec90adbabc; !- CustomDay2 Schedule:Day Name

Schedule:Week:Daily, CoolAvail_Zone_0_18,
  56767e32-0bbe-4584-a736-3ad97285764f, !- Sunday Schedule:Day Name
  ee7902c7-d035-436e-a2fd-e21eac2f445f, !- Monday Schedule:Day Name
  99f79bd4-46e3-417d-93f6-9dce57a70617, !- Tuesday Schedule:Day Name
  56767e32-0bbe-4584-a736-3ad97285764f, !- Wednesday Schedule:Day Name
  d3626a7e-168d-4c03-8cb7-2788b177a6a8, !- Thursday Schedule:Day Name
  5b12d769-f2eb-4bce-91d2-b084a38cf1a7, !- Friday Schedule:Day Name
  6fa8b0f2-524f-4750-a1d2-6686eae5b4d9, !- Saturday Schedule:Day Name
  56767e32-0bbe-4584-a736-3ad97285764f, !- Holiday Schedule:Day Name
  56767e32-0bbe-4584-a736-3ad97285764f, !- SummerDesignDay Schedule:Day Name
  56767e32-0bbe-4584-a736-3ad97285764f, !- WinterDesignDay Schedule:Day Name
  56767e32-0bbe-4584-a736-3ad97285764f, !- CustomDay1 Schedule:Day Name
  56767e32-0bbe-4584-a736-3ad97285764f; !- CustomDay2 Schedule:Day Name

Schedule:Week:Daily, CoolAvail_Zone_0_19,
  ba701114-7120-428a-ad82-ddaf91083595, !- Sunday Schedule:Day Name
  5ab47c27-6665-4fb4-bcea-afccf7fff385, !- Monday Schedule:Day Name
  c8653ceb-114b-470c-bd22-1020441d18ba, !- Tuesday Schedule:Day Name
  299e4ed5-6e00-431b-adf6-6c5f359e0624, !- Wednesday Schedule:Day Name
  dd024e59-59e9-4ec0-b340-24a72d16a332, !- Thursday Schedule:Day Name
  bc5682cf-dbcc-4b62-9317-e1f1ad267d16, !- Friday Schedule:Day Name
  16bdee08-d361-4b29-a00e-2c5b6f4287bf, !- Saturday Schedule:Day Name
  ba701114-7120-428a-ad82-ddaf91083595, !- Holiday Schedule:Day Name
  ba701114-7120-428a-ad82-ddaf91083595, !- SummerDesignDay Schedule:Day Name
  ba701114-7120-428a-ad82-ddaf91083595, !- WinterDesignDay Schedule:Day Name
  ba701114-7120-428a-ad82-ddaf91083595, !- CustomDay1 Schedule:Day Name
  ba701114-7120-428a-ad82-ddaf91083595; !- CustomDay2 Schedule:Day Name

Schedule:Week:Daily, CoolAvail_Zone_0_20,
  d6000f41-bb7b-45ed-b57a-afc1b073e2b7, !- Sunday Schedule:Day Name
  b65bf38e-3a35-4375-9410-f2335e962c88, !- Monday Schedule:Day Name
  ba701114-7120-428a-ad82-ddaf91083595, !- Tuesday Schedule:Day Name
  fcd7c620-d12f-4264-99fa-12fe2d0fe360, !- Wednesday Schedule:Day Name
  b0e7f3e7-0b0a-47e6-8ce3-1c4db2f07d11, !- Thursday Schedule:Day Name
  f184602a-fd31-4090-b52c-4353cb4ac094, !- Friday Schedule:Day Name
  bd2ac4d5-fa12-4449-a241-cc3671ba5225, !- Saturday Schedule:Day Name
  d6000f41-bb7b-45ed-b57a-afc1b073e2b7, !- Holiday Schedule:Day Name
  d6000f41-bb7b-45ed-b57a-afc1b073e2b7, !- SummerDesignDay Schedule:Day Name
  d6000f41-bb7b-45ed-b57a-afc1b073e2b7, !- WinterDesignDay Schedule:Day Name
  d6000f41-bb7b-45ed-b57a-afc1b073e2b7, !- CustomDay1 Schedule:Day Name
  d6000f41-bb7b-45ed-b57a-afc1b073e2b7; !- CustomDay2 Schedule:Day Name

Schedule:Week:Daily, CoolAvail_Zone_0_21,
  2d9e612a-7c91-4d10-a7cc-a66538fbc4e2, !- Sunday Schedule:Day Name
  ffa688da-0411-44dd-9d70-72703ae6793f, !- Monday Schedule:Day Name
  82b83fac-625c-4f48-ae0d-23de262ce1d7, !- Tuesday Schedule:Day Name
  f5dedbc6-e168-4066-87d3-7737789f1eec, !- Wednesday Schedule:Day Name
  3908fc97-3355-42f9-a5f0-17b85040369a, !- Thursday Schedule:Day Name
  441b293e-0602-4a86-ba3b-95f8a9617749, !- Friday Schedule:Day Name
  2cad1ec2-4263-4796-8c4d-cb13d4fa78d7, !- Saturday Schedule:Day Name
  2d9e612a-7c91-4d10-a7cc-a66538fbc4e2, !- Holiday Schedule:Day Name
  2d9e612a-7c91-4d10-a7cc-a66538fbc4e2, !- SummerDesignDay Schedule:Day Name
  2d9e612a-7c91-4d10-a7cc-a66538fbc4e2, !- WinterDesignDay Schedule:Day Name
  2d9e612a-7c91-4d10-a7cc-a66538fbc4e2, !- CustomDay1 Schedule:Day Name
  2d9e612a-7c91-4d10-a7cc-a66538fbc4e2; !- CustomDay2 Schedule:Day Name

Schedule:Week:Daily, CoolAvail_Zone_0_22,
  09dc48e1-efa4-4e49-a927-84a0933d98ab, !- Sunday Schedule:Day Name
  988bcd57-c17a-4639-b57e-eb5c7ba8262e, !- Monday Schedule:Day Name
  06e69188-7907-4533-95c3-5364d0cb791f, !- Tuesday Schedule:Day Name
  65443338-ecc9-491c-8e3c-de1552718c27, !- Wednesday Schedule:Day Name
  ae68125d-280e-4a5f-a8d5-b193018a8ac9, !- Thursday Schedule:Day Name
  85b21898-48cb-4375-96c5-dc00d1059298, !- Friday Schedule:Day Name
  d2be773e-9853-48d9-b5f6-a2d711cee537, !- Saturday Schedule:Day Name
  09dc48e1-efa4-4e49-a927-84a0933d98ab, !- Holiday Schedule:Day Name
  09dc48e1-efa4-4e49-a927-84a0933d98ab, !- SummerDesignDay Schedule:Day Name
  09dc48e1-efa4-4e49-a927-84a0933d98ab, !- WinterDesignDay Schedule:Day Name
  09dc48e1-efa4-4e49-a927-84a0933d98ab, !- CustomDay1 Schedule:Day Name
  09dc48e1-efa4-4e49-a927-84a0933d98ab; !- CustomDay2 Schedule:Day Name

Schedule:Week:Daily, CoolAvail_Zone_0_23,
  a6e490b1-8780-410f-80c0-f6a94a7a68a3, !- Sunday Schedule:Day Name
  0bdf1e4c-e64a-4a98-b225-d7286654d542, !- Monday Schedule:Day Name
  bcf447b6-8acd-48a3-b0fa-01d10871c608, !- Tuesday Schedule:Day Name
  d693a4b4-7284-4f9f-951e-67121e27e855, !- Wednesday Schedule:Day Name
  44f43c23-ed09-4daf-a0f3-317aa98009c0, !- Thursday Schedule:Day Name
  b88c0806-e919-4a23-821f-b640699859c1, !- Friday Schedule:Day Name
  fb5b515e-8c7a-48d7-86a2-7d42d0825d69, !- Saturday Schedule:Day Name
  a6e490b1-8780-410f-80c0-f6a94a7a68a3, !- Holiday Schedule:Day Name
  a6e490b1-8780-410f-80c0-f6a94a7a68a3, !- SummerDesignDay Schedule:Day Name
  a6e490b1-8780-410f-80c0-f6a94a7a68a3, !- WinterDesignDay Schedule:Day Name
  a6e490b1-8780-410f-80c0-f6a94a7a68a3, !- CustomDay1 Schedule:Day Name
  a6e490b1-8780-410f-80c0-f6a94a7a68a3; !- CustomDay2 Schedule:Day Name

Schedule:Week:Daily, CoolAvail_Zone_0_24,
  bc494091-d086-494c-a6e8-676ddecb8490, !- Sunday Schedule:Day Name
  6b5617f7-a3bd-4afd-859b-ae8e27d032a0, !- Monday Schedule:Day Name
  fed21e98-cc81-4a2f-9d92-313f98c174c0, !- Tuesday Schedule:Day Name
  bf34a027-6a11-4120-9c15-5fe23a1c0184, !- Wednesday Schedule:Day Name
  feacbf2d-9493-4998-947d-4cc14bcbe2b5, !- Thursday Schedule:Day Name
  f29213d9-6cd8-4b0c-a869-7c28f96644df, !- Friday Schedule:Day Name
  d5f4d274-0c7a-4976-ab4c-c97a5b730c77, !- Saturday Schedule:Day Name
  bc494091-d086-494c-a6e8-676ddecb8490, !- Holiday Schedule:Day Name
  bc494091-d086-494c-a6e8-676ddecb8490, !- SummerDesignDay Schedule:Day Name
  bc494091-d086-494c-a6e8-676ddecb8490, !- WinterDesignDay Schedule:Day Name
  bc494091-d086-494c-a6e8-676ddecb8490, !- CustomDay1 Schedule:Day Name
  bc494091-d086-494c-a6e8-676ddecb8490; !- CustomDay2 Schedule:Day Name

Schedule:Week:Daily, CoolAvail_Zone_0_25,
  2460e41d-3332-4a28-aefc-0efdb1055dc2, !- Sunday Schedule:Day Name
  e497de92-5bfe-4dbc-aba1-72e8d7e1619e, !- Monday Schedule:Day Name
  2b103ae3-cff9-48dc-a7cd-95ddd8d247a1, !- Tuesday Schedule:Day Name
  c7fdae3b-665f-439c-8bf2-8c1810a98bc6, !- Wednesday Schedule:Day Name
  d81dddf7-af21-4780-8db8-95a03fef33bd, !- Thursday Schedule:Day Name
  12c814b5-42fe-494f-9831-5e8450348377, !- Friday Schedule:Day Name
  c14b5db2-bb33-4589-ac6a-cde458e66fef, !- Saturday Schedule:Day Name
  2460e41d-3332-4a28-aefc-0efdb1055dc2, !- Holiday Schedule:Day Name
  2460e41d-3332-4a28-aefc-0efdb1055dc2, !- SummerDesignDay Schedule:Day Name
  2460e41d-3332-4a28-aefc-0efdb1055dc2, !- WinterDesignDay Schedule:Day Name
  2460e41d-3332-4a28-aefc-0efdb1055dc2, !- CustomDay1 Schedule:Day Name
  2460e41d-3332-4a28-aefc-0efdb1055dc2; !- CustomDay2 Schedule:Day Name

Schedule:Week:Daily, CoolAvail_Zone_0_26,
  203f84ad-dd81-4292-9bd3-b34fef127576, !- Sunday Schedule:Day Name
  e5e8ad67-8b0b-4852-a071-0c1651beece7, !- Monday Schedule:Day Name
  54296a64-0089-4074-9c9e-132eec36a17d, !- Tuesday Schedule:Day Name
  78147d6d-f0e7-4a3c-b0cc-fa2e9ab0f3dc, !- Wednesday Schedule:Day Name
  54eb0daf-bc92-4d96-96a8-27b4a3b3ab42, !- Thursday Schedule:Day Name
  03e1b542-975f-44a0-95b7-bf40f2fbd275, !- Friday Schedule:Day Name
  ac315ea3-b06d-49ed-b1d1-5054dc91f7c0, !- Saturday Schedule:Day Name
  203f84ad-dd81-4292-9bd3-b34fef127576, !- Holiday Schedule:Day Name
  203f84ad-dd81-4292-9bd3-b34fef127576, !- SummerDesignDay Schedule:Day Name
  203f84ad-dd81-4292-9bd3-b34fef127576, !- WinterDesignDay Schedule:Day Name
  203f84ad-dd81-4292-9bd3-b34fef127576, !- CustomDay1 Schedule:Day Name
  203f84ad-dd81-4292-9bd3-b34fef127576; !- CustomDay2 Schedule:Day Name

Schedule:Week:Daily, CoolAvail_Zone_0_27,
  a74eb03a-a13e-4bf3-99f2-b5a56bff7dbc, !- Sunday Schedule:Day Name
  92dca615-0297-4730-aefa-3b81817bd22c, !- Monday Schedule:Day Name
  b8025866-3654-473c-8bc1-0ba4f2893154, !- Tuesday Schedule:Day Name
  433db98a-a20d-4841-8b8a-a1d7e7a3c249, !- Wednesday Schedule:Day Name
  3e854e13-7400-4d4c-8724-f10f6e038dc1, !- Thursday Schedule:Day Name
  914fc65a-65aa-4205-aed3-26715ee28154, !- Friday Schedule:Day Name
  839fd083-3dbd-4375-9952-c691495287d2, !- Saturday Schedule:Day Name
  a74eb03a-a13e-4bf3-99f2-b5a56bff7dbc, !- Holiday Schedule:Day Name
  a74eb03a-a13e-4bf3-99f2-b5a56bff7dbc, !- SummerDesignDay Schedule:Day Name
  a74eb03a-a13e-4bf3-99f2-b5a56bff7dbc, !- WinterDesignDay Schedule:Day Name
  a74eb03a-a13e-4bf3-99f2-b5a56bff7dbc, !- CustomDay1 Schedule:Day Name
  a74eb03a-a13e-4bf3-99f2-b5a56bff7dbc; !- CustomDay2 Schedule:Day Name

Schedule:Week:Daily, CoolAvail_Zone_0_28,
  7a9f45a6-7bd1-4934-a33a-864da3353612, !- Sunday Schedule:Day Name
  86398017-033e-4fd4-99d2-5dc76c0c5157, !- Monday Schedule:Day Name
  ae940f5e-48f8-4872-af59-07b72ce14b47, !- Tuesday Schedule:Day Name
  b95c4d5e-26a9-4707-9df0-f76313d06b9b, !- Wednesday Schedule:Day Name
  8037efc8-13b6-4a93-94dd-cd9c610bbcd2, !- Thursday Schedule:Day Name
  35b02d20-7958-42f8-8221-3676ababc8f7, !- Friday Schedule:Day Name
  2d9e612a-7c91-4d10-a7cc-a66538fbc4e2, !- Saturday Schedule:Day Name
  7a9f45a6-7bd1-4934-a33a-864da3353612, !- Holiday Schedule:Day Name
  7a9f45a6-7bd1-4934-a33a-864da3353612, !- SummerDesignDay Schedule:Day Name
  7a9f45a6-7bd1-4934-a33a-864da3353612, !- WinterDesignDay Schedule:Day Name
  7a9f45a6-7bd1-4934-a33a-864da3353612, !- CustomDay1 Schedule:Day Name
  7a9f45a6-7bd1-4934-a33a-864da3353612; !- CustomDay2 Schedule:Day Name

Schedule:Week:Daily, CoolAvail_Zone_0_29,
  8e08edd5-54b0-4f9a-aa5b-5d6334086c43, !- Sunday Schedule:Day Name
  67f88dbc-49c9-4911-ba1c-78ebb7d7d587, !- Monday Schedule:Day Name
  c7165080-6564-4f63-8eb2-5283c76803c6, !- Tuesday Schedule:Day Name
  883197e9-7c75-4b18-a137-2211aa266f75, !- Wednesday Schedule:Day Name
  8037efc8-13b6-4a93-94dd-cd9c610bbcd2, !- Thursday Schedule:Day Name
  8037efc8-13b6-4a93-94dd-cd9c610bbcd2, !- Friday Schedule:Day Name
  229aaf90-c371-42d9-a0d0-5becb96f7fb4, !- Saturday Schedule:Day Name
  8e08edd5-54b0-4f9a-aa5b-5d6334086c43, !- Holiday Schedule:Day Name
  8e08edd5-54b0-4f9a-aa5b-5d6334086c43, !- SummerDesignDay Schedule:Day Name
  8e08edd5-54b0-4f9a-aa5b-5d6334086c43, !- WinterDesignDay Schedule:Day Name
  8e08edd5-54b0-4f9a-aa5b-5d6334086c43, !- CustomDay1 Schedule:Day Name
  8e08edd5-54b0-4f9a-aa5b-5d6334086c43; !- CustomDay2 Schedule:Day Name

Schedule:Week:Daily, CoolAvail_Zone_0_30,
  1f6c8006-6d32-4bd7-9267-d0568a08bb0b, !- Sunday Schedule:Day Name
  6bf10be0-f6d1-42b2-b7f7-fee7ecca2194, !- Monday Schedule:Day Name
  63ac0d5d-a4de-49a6-827c-0b2b6ce9044e, !- Tuesday Schedule:Day Name
  55e9b221-8cd5-4b2f-b3b4-4624d3cab62b, !- Wednesday Schedule:Day Name
  f5b311a1-8d18-420e-891f-46a6fcdf9abb, !- Thursday Schedule:Day Name
  18d54636-aa9f-4fcc-b42e-b564506e06e2, !- Friday Schedule:Day Name
  5bbd3b37-34ac-4bc2-a72d-0bb5cd506a53, !- Saturday Schedule:Day Name
  1f6c8006-6d32-4bd7-9267-d0568a08bb0b, !- Holiday Schedule:Day Name
  1f6c8006-6d32-4bd7-9267-d0568a08bb0b, !- SummerDesignDay Schedule:Day Name
  1f6c8006-6d32-4bd7-9267-d0568a08bb0b, !- WinterDesignDay Schedule:Day Name
  1f6c8006-6d32-4bd7-9267-d0568a08bb0b, !- CustomDay1 Schedule:Day Name
  1f6c8006-6d32-4bd7-9267-d0568a08bb0b; !- CustomDay2 Schedule:Day Name

Schedule:Week:Daily, CoolAvail_Zone_0_31,
  2ee66fcd-9fef-45a2-9cee-d5d2b2ccdd93, !- Sunday Schedule:Day Name
  fcd7c620-d12f-4264-99fa-12fe2d0fe360, !- Monday Schedule:Day Name
  c7165080-6564-4f63-8eb2-5283c76803c6, !- Tuesday Schedule:Day Name
  8a68abc0-028d-424c-906b-54e3ab565606, !- Wednesday Schedule:Day Name
  662e4420-3d47-4f74-96ef-4a0cf9a2761d, !- Thursday Schedule:Day Name
  f8a50c2a-6260-4063-bcfb-7e7a4cbff610, !- Friday Schedule:Day Name
  d4fb3544-7271-445d-8c74-9fa366beefc6, !- Saturday Schedule:Day Name
  2ee66fcd-9fef-45a2-9cee-d5d2b2ccdd93, !- Holiday Schedule:Day Name
  2ee66fcd-9fef-45a2-9cee-d5d2b2ccdd93, !- SummerDesignDay Schedule:Day Name
  2ee66fcd-9fef-45a2-9cee-d5d2b2ccdd93, !- WinterDesignDay Schedule:Day Name
  2ee66fcd-9fef-45a2-9cee-d5d2b2ccdd93, !- CustomDay1 Schedule:Day Name
  2ee66fcd-9fef-45a2-9cee-d5d2b2ccdd93; !- CustomDay2 Schedule:Day Name

Schedule:Week:Daily, CoolAvail_Zone_0_32,
  54602601-31f4-4de8-bab0-49069784a2b2, !- Sunday Schedule:Day Name
  fb1a1a3e-c698-47bb-9f10-6429565ac78b, !- Monday Schedule:Day Name
  6361670f-08e3-4ce5-9183-c40ed6bec7d6, !- Tuesday Schedule:Day Name
  2d197532-ed74-48b5-a3ea-029b100b3b4c, !- Wednesday Schedule:Day Name
  ef172fd1-1166-4244-9b81-ac9c25ee7140, !- Thursday Schedule:Day Name
  068aa1ea-f92b-4c52-babd-3ba28e088db9, !- Friday Schedule:Day Name
  7be5f930-c9d1-41d1-9f73-8dc014247f47, !- Saturday Schedule:Day Name
  54602601-31f4-4de8-bab0-49069784a2b2, !- Holiday Schedule:Day Name
  54602601-31f4-4de8-bab0-49069784a2b2, !- SummerDesignDay Schedule:Day Name
  54602601-31f4-4de8-bab0-49069784a2b2, !- WinterDesignDay Schedule:Day Name
  54602601-31f4-4de8-bab0-49069784a2b2, !- CustomDay1 Schedule:Day Name
  54602601-31f4-4de8-bab0-49069784a2b2; !- CustomDay2 Schedule:Day Name

Schedule:Week:Daily, CoolAvail_Zone_0_33,
  d479f743-58bb-4381-bc34-0454e4f3726c, !- Sunday Schedule:Day Name
  869f6279-ab4c-45cb-a40c-31db3e045f15, !- Monday Schedule:Day Name
  67f79f5d-879f-44f8-b647-1131f74ce983, !- Tuesday Schedule:Day Name
  971dca29-db39-4082-851a-6dd26ee656e9, !- Wednesday Schedule:Day Name
  42499e71-9635-43f8-97cf-54b25431c190, !- Thursday Schedule:Day Name
  82b83fac-625c-4f48-ae0d-23de262ce1d7, !- Friday Schedule:Day Name
  64895081-95d1-4410-b027-bdd143a5df6e, !- Saturday Schedule:Day Name
  d479f743-58bb-4381-bc34-0454e4f3726c, !- Holiday Schedule:Day Name
  d479f743-58bb-4381-bc34-0454e4f3726c, !- SummerDesignDay Schedule:Day Name
  d479f743-58bb-4381-bc34-0454e4f3726c, !- WinterDesignDay Schedule:Day Name
  d479f743-58bb-4381-bc34-0454e4f3726c, !- CustomDay1 Schedule:Day Name
  d479f743-58bb-4381-bc34-0454e4f3726c; !- CustomDay2 Schedule:Day Name

Schedule:Week:Daily, CoolAvail_Zone_0_34,
  3134f503-972f-4fe3-82ba-8d4e92bfc7da, !- Sunday Schedule:Day Name
  ed6fd3f3-43f2-4ef0-8dd7-7a0b72b31cbb, !- Monday Schedule:Day Name
  0842cef2-874f-47ca-bd6f-c995717f89f5, !- Tuesday Schedule:Day Name
  5261cf2e-85ba-4db6-9ce7-fee0a797b286, !- Wednesday Schedule:Day Name
  cae36862-1c9f-4ffe-9071-76cd90ed5ab1, !- Thursday Schedule:Day Name
  079eeea1-b62c-473a-85e8-522c02ef6f9d, !- Friday Schedule:Day Name
  7e625d85-241e-46f6-b824-82f7e8309bd2, !- Saturday Schedule:Day Name
  3134f503-972f-4fe3-82ba-8d4e92bfc7da, !- Holiday Schedule:Day Name
  3134f503-972f-4fe3-82ba-8d4e92bfc7da, !- SummerDesignDay Schedule:Day Name
  3134f503-972f-4fe3-82ba-8d4e92bfc7da, !- WinterDesignDay Schedule:Day Name
  3134f503-972f-4fe3-82ba-8d4e92bfc7da, !- CustomDay1 Schedule:Day Name
  3134f503-972f-4fe3-82ba-8d4e92bfc7da; !- CustomDay2 Schedule:Day Name

Schedule:Week:Daily, CoolAvail_Zone_0_35,
  ea964e5a-72c8-42ab-b0bd-6840932f00e1, !- Sunday Schedule:Day Name
  7ae45e4a-7fd6-41e5-8a4e-fe4adb9c3dce, !- Monday Schedule:Day Name
  19df4775-b0ea-4311-b4c7-9b47212df40c, !- Tuesday Schedule:Day Name
  d1d83a89-aa02-48bd-bd42-bc8bb0993573, !- Wednesday Schedule:Day Name
  fed7032a-de7c-4f09-9247-478ff5a78e8a, !- Thursday Schedule:Day Name
  8e8bb3cb-8142-4bc1-9217-54d946ff4a27, !- Friday Schedule:Day Name
  7624fc2b-1449-4fb3-8063-622a8346a11d, !- Saturday Schedule:Day Name
  ea964e5a-72c8-42ab-b0bd-6840932f00e1, !- Holiday Schedule:Day Name
  ea964e5a-72c8-42ab-b0bd-6840932f00e1, !- SummerDesignDay Schedule:Day Name
  ea964e5a-72c8-42ab-b0bd-6840932f00e1, !- WinterDesignDay Schedule:Day Name
  ea964e5a-72c8-42ab-b0bd-6840932f00e1, !- CustomDay1 Schedule:Day Name
  ea964e5a-72c8-42ab-b0bd-6840932f00e1; !- CustomDay2 Schedule:Day Name

Schedule:Week:Daily, CoolAvail_Zone_0_36,
  af5e5cc7-e4d6-4050-8d03-adeff9a77ade, !- Sunday Schedule:Day Name
  d6000f41-bb7b-45ed-b57a-afc1b073e2b7, !- Monday Schedule:Day Name
  20a2ea15-0366-4157-a8c0-57d473969917, !- Tuesday Schedule:Day Name
  f07b88ba-faba-4079-b627-1374bd56611b, !- Wednesday Schedule:Day Name
  b20c4fbb-534b-4f67-bcc6-599de88231cd, !- Thursday Schedule:Day Name
  dab0f51d-b6c7-402d-9076-f670d8a8be3a, !- Friday Schedule:Day Name
  2b103ae3-cff9-48dc-a7cd-95ddd8d247a1, !- Saturday Schedule:Day Name
  af5e5cc7-e4d6-4050-8d03-adeff9a77ade, !- Holiday Schedule:Day Name
  af5e5cc7-e4d6-4050-8d03-adeff9a77ade, !- SummerDesignDay Schedule:Day Name
  af5e5cc7-e4d6-4050-8d03-adeff9a77ade, !- WinterDesignDay Schedule:Day Name
  af5e5cc7-e4d6-4050-8d03-adeff9a77ade, !- CustomDay1 Schedule:Day Name
  af5e5cc7-e4d6-4050-8d03-adeff9a77ade; !- CustomDay2 Schedule:Day Name

Schedule:Week:Daily, CoolAvail_Zone_0_37,
  8037efc8-13b6-4a93-94dd-cd9c610bbcd2, !- Sunday Schedule:Day Name
  a3895398-1c9f-41ad-a557-52d5878792ae, !- Monday Schedule:Day Name
  c23acc3e-60bf-4750-8b05-9199dcac2b66, !- Tuesday Schedule:Day Name
  836068ed-9d2b-442f-ad17-65d6e156eb7f, !- Wednesday Schedule:Day Name
  1baf96c9-a5a4-4043-be5b-f3283d23d3d7, !- Thursday Schedule:Day Name
  5dcdb427-e9f7-4689-9180-3caf423e22ed, !- Friday Schedule:Day Name
  7a23f633-3cc0-42d7-81b6-4b350cb7b05f, !- Saturday Schedule:Day Name
  8037efc8-13b6-4a93-94dd-cd9c610bbcd2, !- Holiday Schedule:Day Name
  8037efc8-13b6-4a93-94dd-cd9c610bbcd2, !- SummerDesignDay Schedule:Day Name
  8037efc8-13b6-4a93-94dd-cd9c610bbcd2, !- WinterDesignDay Schedule:Day Name
  8037efc8-13b6-4a93-94dd-cd9c610bbcd2, !- CustomDay1 Schedule:Day Name
  8037efc8-13b6-4a93-94dd-cd9c610bbcd2; !- CustomDay2 Schedule:Day Name

Schedule:Week:Daily, CoolAvail_Zone_0_38,
  93237feb-5df3-46aa-8b07-617937b658ed, !- Sunday Schedule:Day Name
  2111913f-7513-48a7-b5ce-ad86985c307c, !- Monday Schedule:Day Name
  af5e5cc7-e4d6-4050-8d03-adeff9a77ade, !- Tuesday Schedule:Day Name
  62396e1b-6101-4778-9a89-c3df6b012de8, !- Wednesday Schedule:Day Name
  c88f0633-769b-4102-ae75-12d9dbdc8829, !- Thursday Schedule:Day Name
  001a5d9e-2975-4612-a3d7-69e5931aa604, !- Friday Schedule:Day Name
  3fc9ed15-e43c-4b4e-ac0d-8b756d89cf34, !- Saturday Schedule:Day Name
  93237feb-5df3-46aa-8b07-617937b658ed, !- Holiday Schedule:Day Name
  93237feb-5df3-46aa-8b07-617937b658ed, !- SummerDesignDay Schedule:Day Name
  93237feb-5df3-46aa-8b07-617937b658ed, !- WinterDesignDay Schedule:Day Name
  93237feb-5df3-46aa-8b07-617937b658ed, !- CustomDay1 Schedule:Day Name
  93237feb-5df3-46aa-8b07-617937b658ed; !- CustomDay2 Schedule:Day Name

Schedule:Week:Daily, CoolAvail_Zone_0_39,
  d748a229-17c4-4497-a2ae-3035c432b4ba, !- Sunday Schedule:Day Name
  7048c016-b3cc-4d30-b7a2-e82832680144, !- Monday Schedule:Day Name
  45178cf4-77f9-40aa-a0a4-11b28ac7ef65, !- Tuesday Schedule:Day Name
  af41c58c-a08e-4e43-bc5d-241de93dec8d, !- Wednesday Schedule:Day Name
  9f03cfd3-7633-41ee-8cfd-2eb55b373d64, !- Thursday Schedule:Day Name
  50c105d0-a097-4d9e-b7de-f51dfab3287e, !- Friday Schedule:Day Name
  8037efc8-13b6-4a93-94dd-cd9c610bbcd2, !- Saturday Schedule:Day Name
  d748a229-17c4-4497-a2ae-3035c432b4ba, !- Holiday Schedule:Day Name
  d748a229-17c4-4497-a2ae-3035c432b4ba, !- SummerDesignDay Schedule:Day Name
  d748a229-17c4-4497-a2ae-3035c432b4ba, !- WinterDesignDay Schedule:Day Name
  d748a229-17c4-4497-a2ae-3035c432b4ba, !- CustomDay1 Schedule:Day Name
  d748a229-17c4-4497-a2ae-3035c432b4ba; !- CustomDay2 Schedule:Day Name

Schedule:Week:Daily, CoolAvail_Zone_0_40,
  883197e9-7c75-4b18-a137-2211aa266f75, !- Sunday Schedule:Day Name
  a7bd0efe-3aa0-41ad-a862-0c0766c6b48d, !- Monday Schedule:Day Name
  c2976b59-a9d1-4ec2-afd8-5a25a852f813, !- Tuesday Schedule:Day Name
  0892341c-ce22-48bf-b2d7-a6b54bea3fca, !- Wednesday Schedule:Day Name
  0810e71b-70c5-4420-88cf-15ec6798d871, !- Thursday Schedule:Day Name
  349f065c-2187-4dc3-b9d1-56dd459cd3aa, !- Friday Schedule:Day Name
  01a71e10-1e50-47e8-9dee-a916c16c638e, !- Saturday Schedule:Day Name
  883197e9-7c75-4b18-a137-2211aa266f75, !- Holiday Schedule:Day Name
  883197e9-7c75-4b18-a137-2211aa266f75, !- SummerDesignDay Schedule:Day Name
  883197e9-7c75-4b18-a137-2211aa266f75, !- WinterDesignDay Schedule:Day Name
  883197e9-7c75-4b18-a137-2211aa266f75, !- CustomDay1 Schedule:Day Name
  883197e9-7c75-4b18-a137-2211aa266f75; !- CustomDay2 Schedule:Day Name

Schedule:Week:Daily, CoolAvail_Zone_0_41,
  00c0e0ef-4640-43c7-a598-4a9e97edaa6d, !- Sunday Schedule:Day Name
  9f40d702-859b-4665-b72c-3fe96d7343c0, !- Monday Schedule:Day Name
  86c1b371-93d3-48e4-a207-f1c1352b0e07, !- Tuesday Schedule:Day Name
  cd0a9f9b-4dd7-42b7-b076-0355e52e6f7b, !- Wednesday Schedule:Day Name
  d67b88e1-e680-47cd-8d1c-4d1d765bc77f, !- Thursday Schedule:Day Name
  e2fff377-7aec-4250-9183-b298a2f973d8, !- Friday Schedule:Day Name
  f14ff8f6-1366-4599-b910-1c5d2465ca29, !- Saturday Schedule:Day Name
  00c0e0ef-4640-43c7-a598-4a9e97edaa6d, !- Holiday Schedule:Day Name
  00c0e0ef-4640-43c7-a598-4a9e97edaa6d, !- SummerDesignDay Schedule:Day Name
  00c0e0ef-4640-43c7-a598-4a9e97edaa6d, !- WinterDesignDay Schedule:Day Name
  00c0e0ef-4640-43c7-a598-4a9e97edaa6d, !- CustomDay1 Schedule:Day Name
  00c0e0ef-4640-43c7-a598-4a9e97edaa6d; !- CustomDay2 Schedule:Day Name

Schedule:Week:Daily, CoolAvail_Zone_0_42,
  5c89464c-5ef5-470d-8494-ad207c1193eb, !- Sunday Schedule:Day Name
  70fccbbf-0968-4144-81c4-213cfebb1410, !- Monday Schedule:Day Name
  6a72401a-39b8-4c8e-8b0f-e18fc8ead1de, !- Tuesday Schedule:Day Name
  08ea07bc-ec12-43a9-b5e9-4255b164943a, !- Wednesday Schedule:Day Name
  10e9fb05-1858-4299-a879-61cf543e850c, !- Thursday Schedule:Day Name
  482c0ff1-a1cf-4518-9a9b-c9fd94c742e4, !- Friday Schedule:Day Name
  971f1f81-7ffb-4225-a188-1d66d3d201fa, !- Saturday Schedule:Day Name
  5c89464c-5ef5-470d-8494-ad207c1193eb, !- Holiday Schedule:Day Name
  5c89464c-5ef5-470d-8494-ad207c1193eb, !- SummerDesignDay Schedule:Day Name
  5c89464c-5ef5-470d-8494-ad207c1193eb, !- WinterDesignDay Schedule:Day Name
  5c89464c-5ef5-470d-8494-ad207c1193eb, !- CustomDay1 Schedule:Day Name
  5c89464c-5ef5-470d-8494-ad207c1193eb; !- CustomDay2 Schedule:Day Name

Schedule:Week:Daily, CoolAvail_Zone_0_43,
  6005d886-9535-43e2-8214-16ed1c354114, !- Sunday Schedule:Day Name
  fb266e95-20a3-4bcf-bbe1-b2c024e0e2b5, !- Monday Schedule:Day Name
  c7bf4c7d-8060-4b6f-adbe-915409cfed54, !- Tuesday Schedule:Day Name
  321755bc-5975-4af5-b1da-08a8e318b26e, !- Wednesday Schedule:Day Name
  27c04f71-bc10-47cd-96d5-273982dcbd55, !- Thursday Schedule:Day Name
  4fe47908-5490-47fc-b963-a5acf1d7db7e, !- Friday Schedule:Day Name
  7509aeb8-b5e9-4c74-ac1f-85b5df4f7c3a, !- Saturday Schedule:Day Name
  6005d886-9535-43e2-8214-16ed1c354114, !- Holiday Schedule:Day Name
  6005d886-9535-43e2-8214-16ed1c354114, !- SummerDesignDay Schedule:Day Name
  6005d886-9535-43e2-8214-16ed1c354114, !- WinterDesignDay Schedule:Day Name
  6005d886-9535-43e2-8214-16ed1c354114, !- CustomDay1 Schedule:Day Name
  6005d886-9535-43e2-8214-16ed1c354114; !- CustomDay2 Schedule:Day Name

Schedule:Week:Daily, CoolAvail_Zone_0_44,
  8524b59a-4086-4eb9-a3a3-9c11016325d2, !- Sunday Schedule:Day Name
  33232023-d3bc-4167-9908-7f5fb7bc4845, !- Monday Schedule:Day Name
  fc63d4ab-520f-4892-8535-8a5b19853f97, !- Tuesday Schedule:Day Name
  529c80a2-adcc-425c-9c7a-9e4ea92c5ad0, !- Wednesday Schedule:Day Name
  361a62d4-4483-44e2-8178-8ae958f5a9d6, !- Thursday Schedule:Day Name
  d39a0a2d-9745-449f-9744-d5c12fb151a7, !- Friday Schedule:Day Name
  eba83cb3-639c-4d5a-bba0-65026861de94, !- Saturday Schedule:Day Name
  8524b59a-4086-4eb9-a3a3-9c11016325d2, !- Holiday Schedule:Day Name
  8524b59a-4086-4eb9-a3a3-9c11016325d2, !- SummerDesignDay Schedule:Day Name
  8524b59a-4086-4eb9-a3a3-9c11016325d2, !- WinterDesignDay Schedule:Day Name
  8524b59a-4086-4eb9-a3a3-9c11016325d2, !- CustomDay1 Schedule:Day Name
  8524b59a-4086-4eb9-a3a3-9c11016325d2; !- CustomDay2 Schedule:Day Name

Schedule:Week:Daily, CoolAvail_Zone_0_45,
  529897b0-7851-4804-9490-ac1e49f6673f, !- Sunday Schedule:Day Name
  6bf10be0-f6d1-42b2-b7f7-fee7ecca2194, !- Monday Schedule:Day Name
  8c1eacb8-60e0-437f-9c00-406e7754e0a1, !- Tuesday Schedule:Day Name
  ce02b5cd-0b87-43e5-8d81-d91c88fad177, !- Wednesday Schedule:Day Name
  45178cf4-77f9-40aa-a0a4-11b28ac7ef65, !- Thursday Schedule:Day Name
  4a8131e1-6b61-40b7-be8c-de09692f1780, !- Friday Schedule:Day Name
  529897b0-7851-4804-9490-ac1e49f6673f, !- Saturday Schedule:Day Name
  529897b0-7851-4804-9490-ac1e49f6673f, !- Holiday Schedule:Day Name
  529897b0-7851-4804-9490-ac1e49f6673f, !- SummerDesignDay Schedule:Day Name
  529897b0-7851-4804-9490-ac1e49f6673f, !- WinterDesignDay Schedule:Day Name
  529897b0-7851-4804-9490-ac1e49f6673f, !- CustomDay1 Schedule:Day Name
  529897b0-7851-4804-9490-ac1e49f6673f; !- CustomDay2 Schedule:Day Name

Schedule:Week:Daily, CoolAvail_Zone_0_46,
  a92963a4-cdb5-4605-91ce-c7ecaa5e8ee2, !- Sunday Schedule:Day Name
  70fccbbf-0968-4144-81c4-213cfebb1410, !- Monday Schedule:Day Name
  60a5d225-296d-4afc-ad11-c7ede8f63fac, !- Tuesday Schedule:Day Name
  05a610c2-0fe3-448e-b41f-ef2fc4f267a0, !- Wednesday Schedule:Day Name
  741097d7-baff-4054-969c-272c18da0d28, !- Thursday Schedule:Day Name
  894fad8a-9db2-4cf0-9b25-e19f91a4054e, !- Friday Schedule:Day Name
  4e647661-89a2-4b39-a766-581725928f1c, !- Saturday Schedule:Day Name
  a92963a4-cdb5-4605-91ce-c7ecaa5e8ee2, !- Holiday Schedule:Day Name
  a92963a4-cdb5-4605-91ce-c7ecaa5e8ee2, !- SummerDesignDay Schedule:Day Name
  a92963a4-cdb5-4605-91ce-c7ecaa5e8ee2, !- WinterDesignDay Schedule:Day Name
  a92963a4-cdb5-4605-91ce-c7ecaa5e8ee2, !- CustomDay1 Schedule:Day Name
  a92963a4-cdb5-4605-91ce-c7ecaa5e8ee2; !- CustomDay2 Schedule:Day Name

Schedule:Week:Daily, CoolAvail_Zone_0_47,
  4b6ed41e-87c7-4975-a053-4426fd22b8bb, !- Sunday Schedule:Day Name
  bd449fe4-415f-4b3c-8c99-a05e91d1a4a4, !- Monday Schedule:Day Name
  4c9fed97-f1c1-4f52-93cf-6e3ebb21d123, !- Tuesday Schedule:Day Name
  90e3bf91-1fac-41b0-8900-77a460dd330f, !- Wednesday Schedule:Day Name
  81f41662-e9ac-4eb1-b85d-5b27cc855202, !- Thursday Schedule:Day Name
  72c3588e-b2e9-4518-9183-511a012e489a, !- Friday Schedule:Day Name
  058802b1-c408-489d-8eb6-82654434e169, !- Saturday Schedule:Day Name
  4b6ed41e-87c7-4975-a053-4426fd22b8bb, !- Holiday Schedule:Day Name
  4b6ed41e-87c7-4975-a053-4426fd22b8bb, !- SummerDesignDay Schedule:Day Name
  4b6ed41e-87c7-4975-a053-4426fd22b8bb, !- WinterDesignDay Schedule:Day Name
  4b6ed41e-87c7-4975-a053-4426fd22b8bb, !- CustomDay1 Schedule:Day Name
  4b6ed41e-87c7-4975-a053-4426fd22b8bb; !- CustomDay2 Schedule:Day Name

Schedule:Week:Daily, CoolAvail_Zone_0_48,
  c893bc1b-9ab6-4618-9526-c9d7948028e1, !- Sunday Schedule:Day Name
  2d3622f6-77fb-4f19-83ce-4f29eb6027ad, !- Monday Schedule:Day Name
  485f56f1-57ec-4dbc-a7b3-1c70517bfc66, !- Tuesday Schedule:Day Name
  f2aed9a4-388b-497b-9736-4f8f69007e10, !- Wednesday Schedule:Day Name
  3aec51c0-ffc0-4bed-9820-b9f1594e9715, !- Thursday Schedule:Day Name
  2b439630-06c0-43d1-b733-c1b6edee79ff, !- Friday Schedule:Day Name
  1354364f-3d47-441f-baaf-d91082a93f77, !- Saturday Schedule:Day Name
  c893bc1b-9ab6-4618-9526-c9d7948028e1, !- Holiday Schedule:Day Name
  c893bc1b-9ab6-4618-9526-c9d7948028e1, !- SummerDesignDay Schedule:Day Name
  c893bc1b-9ab6-4618-9526-c9d7948028e1, !- WinterDesignDay Schedule:Day Name
  c893bc1b-9ab6-4618-9526-c9d7948028e1, !- CustomDay1 Schedule:Day Name
  c893bc1b-9ab6-4618-9526-c9d7948028e1; !- CustomDay2 Schedule:Day Name

Schedule:Week:Daily, CoolAvail_Zone_0_49,
  043a86aa-8b78-41f9-9b1e-acb706614a46, !- Sunday Schedule:Day Name
  6a1fb187-319f-4c84-bc8c-24fb97a2dfa3, !- Monday Schedule:Day Name
  a632ed9a-5de7-4d2a-9650-94074f019fd4, !- Tuesday Schedule:Day Name
  3b8062e7-37c0-42ef-9213-e2c9e8404624, !- Wednesday Schedule:Day Name
  3b07df94-8bae-425c-907d-ec27d7f912fc, !- Thursday Schedule:Day Name
  7be9cbd2-a441-4429-bd23-b447bb17e9a1, !- Friday Schedule:Day Name
  7c9938da-5bc3-4155-9f17-6dbf6999afb5, !- Saturday Schedule:Day Name
  043a86aa-8b78-41f9-9b1e-acb706614a46, !- Holiday Schedule:Day Name
  043a86aa-8b78-41f9-9b1e-acb706614a46, !- SummerDesignDay Schedule:Day Name
  043a86aa-8b78-41f9-9b1e-acb706614a46, !- WinterDesignDay Schedule:Day Name
  043a86aa-8b78-41f9-9b1e-acb706614a46, !- CustomDay1 Schedule:Day Name
  043a86aa-8b78-41f9-9b1e-acb706614a46; !- CustomDay2 Schedule:Day Name

Schedule:Week:Daily, CoolAvail_Zone_0_50,
  149cf891-3990-4c32-920f-f7e48fb2aa7d, !- Sunday Schedule:Day Name
  c2976b59-a9d1-4ec2-afd8-5a25a852f813, !- Monday Schedule:Day Name
  f20793a5-f3a4-45ea-858c-464f45aebaeb, !- Tuesday Schedule:Day Name
  918cd881-32ed-44fa-84e1-0d95cc65e6a6, !- Wednesday Schedule:Day Name
  a7388b1d-e5d5-446e-9b3c-e9680b62e304, !- Thursday Schedule:Day Name
  48e2d8e6-c764-4309-9400-535a4b362951, !- Friday Schedule:Day Name
  b8feaf6b-9232-4fb5-8901-8b4871c860c7, !- Saturday Schedule:Day Name
  149cf891-3990-4c32-920f-f7e48fb2aa7d, !- Holiday Schedule:Day Name
  149cf891-3990-4c32-920f-f7e48fb2aa7d, !- SummerDesignDay Schedule:Day Name
  149cf891-3990-4c32-920f-f7e48fb2aa7d, !- WinterDesignDay Schedule:Day Name
  149cf891-3990-4c32-920f-f7e48fb2aa7d, !- CustomDay1 Schedule:Day Name
  149cf891-3990-4c32-920f-f7e48fb2aa7d; !- CustomDay2 Schedule:Day Name

Schedule:Week:Daily, CoolAvail_Zone_0_51,
  485ce407-0896-49d2-8bdb-d863cf701a37, !- Sunday Schedule:Day Name
  77e688b3-1c47-4fa8-a150-bdfd9f7a6f05, !- Monday Schedule:Day Name
  ae164842-401a-4343-b31c-0fd7bb1224be, !- Tuesday Schedule:Day Name
  aca1a674-1583-4169-b70b-1a5a21e13e0d, !- Wednesday Schedule:Day Name
  71cadaa5-eb0e-4c82-bfb7-05770e92396e, !- Thursday Schedule:Day Name
  7fed7190-ed49-4405-b641-6bd42e090a6c, !- Friday Schedule:Day Name
  f8a50c2a-6260-4063-bcfb-7e7a4cbff610, !- Saturday Schedule:Day Name
  485ce407-0896-49d2-8bdb-d863cf701a37, !- Holiday Schedule:Day Name
  485ce407-0896-49d2-8bdb-d863cf701a37, !- SummerDesignDay Schedule:Day Name
  485ce407-0896-49d2-8bdb-d863cf701a37, !- WinterDesignDay Schedule:Day Name
  485ce407-0896-49d2-8bdb-d863cf701a37, !- CustomDay1 Schedule:Day Name
  485ce407-0896-49d2-8bdb-d863cf701a37; !- CustomDay2 Schedule:Day Name

Schedule:Week:Daily, CoolAvail_Zone_0_52,
  cba0dbdb-88fe-4b2a-b0a5-debe7df2df22, !- Sunday Schedule:Day Name
  cba0dbdb-88fe-4b2a-b0a5-debe7df2df22, !- Monday Schedule:Day Name
  cba0dbdb-88fe-4b2a-b0a5-debe7df2df22, !- Tuesday Schedule:Day Name
  cba0dbdb-88fe-4b2a-b0a5-debe7df2df22, !- Wednesday Schedule:Day Name
  cba0dbdb-88fe-4b2a-b0a5-debe7df2df22, !- Thursday Schedule:Day Name
  cba0dbdb-88fe-4b2a-b0a5-debe7df2df22, !- Friday Schedule:Day Name
  cba0dbdb-88fe-4b2a-b0a5-debe7df2df22, !- Saturday Schedule:Day Name
  cba0dbdb-88fe-4b2a-b0a5-debe7df2df22, !- Holiday Schedule:Day Name
  cba0dbdb-88fe-4b2a-b0a5-debe7df2df22, !- SummerDesignDay Schedule:Day Name
  cba0dbdb-88fe-4b2a-b0a5-debe7df2df22, !- WinterDesignDay Schedule:Day Name
  cba0dbdb-88fe-4b2a-b0a5-debe7df2df22, !- CustomDay1 Schedule:Day Name
  cba0dbdb-88fe-4b2a-b0a5-debe7df2df22; !- CustomDay2 Schedule:Day Name


Schedule:Year,MechVentAvail_Zone_0,
Fraction,
MechVentAvail_Zone_0_0,1,1,1,7, 
MechVentAvail_Zone_0_1,1,8,1,14, 
MechVentAvail_Zone_0_2,1,15,1,21, 
MechVentAvail_Zone_0_3,1,22,1,28, 
MechVentAvail_Zone_0_4,1,29,2,4, 
MechVentAvail_Zone_0_5,2,5,2,11, 
MechVentAvail_Zone_0_6,2,12,2,18, 
MechVentAvail_Zone_0_7,2,19,2,25, 
MechVentAvail_Zone_0_8,2,26,3,4, 
MechVentAvail_Zone_0_9,3,5,3,11, 
MechVentAvail_Zone_0_10,3,12,3,18, 
MechVentAvail_Zone_0_11,3,19,3,25, 
MechVentAvail_Zone_0_12,3,26,4,1, 
MechVentAvail_Zone_0_13,4,2,4,8, 
MechVentAvail_Zone_0_14,4,9,4,15, 
MechVentAvail_Zone_0_15,4,16,4,22, 
MechVentAvail_Zone_0_16,4,23,4,29, 
MechVentAvail_Zone_0_17,4,30,5,6, 
MechVentAvail_Zone_0_18,5,7,5,13, 
MechVentAvail_Zone_0_19,5,14,5,20, 
MechVentAvail_Zone_0_20,5,21,5,27, 
MechVentAvail_Zone_0_21,5,28,6,3, 
MechVentAvail_Zone_0_22,6,4,6,10, 
MechVentAvail_Zone_0_23,6,11,6,17, 
MechVentAvail_Zone_0_24,6,18,6,24, 
MechVentAvail_Zone_0_25,6,25,7,1, 
MechVentAvail_Zone_0_26,7,2,7,8, 
MechVentAvail_Zone_0_27,7,9,7,15, 
MechVentAvail_Zone_0_28,7,16,7,22, 
MechVentAvail_Zone_0_29,7,23,7,29, 
MechVentAvail_Zone_0_30,7,30,8,5, 
MechVentAvail_Zone_0_31,8,6,8,12, 
MechVentAvail_Zone_0_32,8,13,8,19, 
MechVentAvail_Zone_0_33,8,20,8,26, 
MechVentAvail_Zone_0_34,8,27,9,2, 
MechVentAvail_Zone_0_35,9,3,9,9, 
MechVentAvail_Zone_0_36,9,10,9,16, 
MechVentAvail_Zone_0_37,9,17,9,23, 
MechVentAvail_Zone_0_38,9,24,9,30, 
MechVentAvail_Zone_0_39,10,1,10,7, 
MechVentAvail_Zone_0_40,10,8,10,14, 
MechVentAvail_Zone_0_41,10,15,10,21, 
MechVentAvail_Zone_0_42,10,22,10,28, 
MechVentAvail_Zone_0_43,10,29,11,4, 
MechVentAvail_Zone_0_44,11,5,11,11, 
MechVentAvail_Zone_0_45,11,12,11,18, 
MechVentAvail_Zone_0_46,11,19,11,25, 
MechVentAvail_Zone_0_47,11,26,12,2, 
MechVentAvail_Zone_0_48,12,3,12,9, 
MechVentAvail_Zone_0_49,12,10,12,16, 
MechVentAvail_Zone_0_50,12,17,12,23, 
MechVentAvail_Zone_0_51,12,24,12,30, 
MechVentAvail_Zone_0_52,12,31,12,31;

Schedule:Week:Daily, MechVentAvail_Zone_0_0,
  8618f100-70c2-48df-87e0-fab351c34c6b, !- Sunday Schedule:Day Name
  5dcdb427-e9f7-4689-9180-3caf423e22ed, !- Monday Schedule:Day Name
  81afa01e-09a0-48f0-80c4-d51ce1cab127, !- Tuesday Schedule:Day Name
  3cd3efd9-c042-47ce-b340-cc821a576093, !- Wednesday Schedule:Day Name
  1f0a6719-7bb2-40ba-813e-320f98ae352d, !- Thursday Schedule:Day Name
  ba2ee583-8b1e-4da9-bea0-6898974df253, !- Friday Schedule:Day Name
  926130ae-f225-4a34-92c9-1cb046bf1eec, !- Saturday Schedule:Day Name
  8618f100-70c2-48df-87e0-fab351c34c6b, !- Holiday Schedule:Day Name
  8618f100-70c2-48df-87e0-fab351c34c6b, !- SummerDesignDay Schedule:Day Name
  8618f100-70c2-48df-87e0-fab351c34c6b, !- WinterDesignDay Schedule:Day Name
  8618f100-70c2-48df-87e0-fab351c34c6b, !- CustomDay1 Schedule:Day Name
  8618f100-70c2-48df-87e0-fab351c34c6b; !- CustomDay2 Schedule:Day Name

Schedule:Week:Daily, MechVentAvail_Zone_0_1,
  19df4775-b0ea-4311-b4c7-9b47212df40c, !- Sunday Schedule:Day Name
  a4de81bb-62dd-413f-b347-54048df0ec3b, !- Monday Schedule:Day Name
  14815d8d-3afd-4f05-9184-e9a77283cc26, !- Tuesday Schedule:Day Name
  33611082-0976-46d1-b902-5b496b6874f4, !- Wednesday Schedule:Day Name
  253c2796-c64f-472f-b25c-3e1240d7e6a8, !- Thursday Schedule:Day Name
  8b90107e-4638-441a-9e95-5783319c763c, !- Friday Schedule:Day Name
  02756fd2-63df-4c34-a473-0fff2fd6183c, !- Saturday Schedule:Day Name
  19df4775-b0ea-4311-b4c7-9b47212df40c, !- Holiday Schedule:Day Name
  19df4775-b0ea-4311-b4c7-9b47212df40c, !- SummerDesignDay Schedule:Day Name
  19df4775-b0ea-4311-b4c7-9b47212df40c, !- WinterDesignDay Schedule:Day Name
  19df4775-b0ea-4311-b4c7-9b47212df40c, !- CustomDay1 Schedule:Day Name
  19df4775-b0ea-4311-b4c7-9b47212df40c; !- CustomDay2 Schedule:Day Name

Schedule:Week:Daily, MechVentAvail_Zone_0_2,
  908a2c86-dd1e-4717-bf7e-8c26c4dd02b6, !- Sunday Schedule:Day Name
  10cddf50-3af0-41ed-9158-3e58b74c72fd, !- Monday Schedule:Day Name
  253c2796-c64f-472f-b25c-3e1240d7e6a8, !- Tuesday Schedule:Day Name
  0d1e05ee-c032-4751-bd17-35229dda24f7, !- Wednesday Schedule:Day Name
  5dcdb427-e9f7-4689-9180-3caf423e22ed, !- Thursday Schedule:Day Name
  aa80f693-747a-49d9-91b8-8ea95c56ce05, !- Friday Schedule:Day Name
  87368852-f780-41ab-9086-c1382deee484, !- Saturday Schedule:Day Name
  908a2c86-dd1e-4717-bf7e-8c26c4dd02b6, !- Holiday Schedule:Day Name
  908a2c86-dd1e-4717-bf7e-8c26c4dd02b6, !- SummerDesignDay Schedule:Day Name
  908a2c86-dd1e-4717-bf7e-8c26c4dd02b6, !- WinterDesignDay Schedule:Day Name
  908a2c86-dd1e-4717-bf7e-8c26c4dd02b6, !- CustomDay1 Schedule:Day Name
  908a2c86-dd1e-4717-bf7e-8c26c4dd02b6; !- CustomDay2 Schedule:Day Name

Schedule:Week:Daily, MechVentAvail_Zone_0_3,
  77587a13-7089-4d45-ab40-5d45ae6bfd6d, !- Sunday Schedule:Day Name
  1d77efd4-25ae-47c1-adf6-4d311e70798c, !- Monday Schedule:Day Name
  6671bfd2-5b98-40d8-9327-8cbcd87165f1, !- Tuesday Schedule:Day Name
  da6b72e5-e97a-4292-a2b7-513a6e8a3d11, !- Wednesday Schedule:Day Name
  2596d5a2-b66d-4e24-9263-ea2e18f87898, !- Thursday Schedule:Day Name
  8618f100-70c2-48df-87e0-fab351c34c6b, !- Friday Schedule:Day Name
  f04ce753-6cfe-4115-82ff-bbb9d4f8620e, !- Saturday Schedule:Day Name
  77587a13-7089-4d45-ab40-5d45ae6bfd6d, !- Holiday Schedule:Day Name
  77587a13-7089-4d45-ab40-5d45ae6bfd6d, !- SummerDesignDay Schedule:Day Name
  77587a13-7089-4d45-ab40-5d45ae6bfd6d, !- WinterDesignDay Schedule:Day Name
  77587a13-7089-4d45-ab40-5d45ae6bfd6d, !- CustomDay1 Schedule:Day Name
  77587a13-7089-4d45-ab40-5d45ae6bfd6d; !- CustomDay2 Schedule:Day Name

Schedule:Week:Daily, MechVentAvail_Zone_0_4,
  cecc4cf8-ca63-4d31-9b9c-6714284e592c, !- Sunday Schedule:Day Name
  3dd9e1e0-8daa-4f08-a023-9c19800cc0b2, !- Monday Schedule:Day Name
  0a42ac73-97ca-4d90-9bbe-a0f31409f58c, !- Tuesday Schedule:Day Name
  f5b21968-f33b-499f-8c27-d37bb032ee17, !- Wednesday Schedule:Day Name
  aac78e26-21a9-4344-93f1-82c4f8052330, !- Thursday Schedule:Day Name
  7dc33dc8-4d07-41df-bb0f-79f8a1f0e58d, !- Friday Schedule:Day Name
  3dd9e1e0-8daa-4f08-a023-9c19800cc0b2, !- Saturday Schedule:Day Name
  cecc4cf8-ca63-4d31-9b9c-6714284e592c, !- Holiday Schedule:Day Name
  cecc4cf8-ca63-4d31-9b9c-6714284e592c, !- SummerDesignDay Schedule:Day Name
  cecc4cf8-ca63-4d31-9b9c-6714284e592c, !- WinterDesignDay Schedule:Day Name
  cecc4cf8-ca63-4d31-9b9c-6714284e592c, !- CustomDay1 Schedule:Day Name
  cecc4cf8-ca63-4d31-9b9c-6714284e592c; !- CustomDay2 Schedule:Day Name

Schedule:Week:Daily, MechVentAvail_Zone_0_5,
  173a3c5b-6f92-4ca6-9f0e-244ffac931a2, !- Sunday Schedule:Day Name
  ffa688da-0411-44dd-9d70-72703ae6793f, !- Monday Schedule:Day Name
  4a292ec0-405d-4173-9fe5-0a00ddd43b25, !- Tuesday Schedule:Day Name
  4805e92b-9692-4833-b393-aed0ec1af40f, !- Wednesday Schedule:Day Name
  e297b3e2-62d7-4102-b660-d1e9a6a9a5d5, !- Thursday Schedule:Day Name
  2ec5f2f4-a667-483b-a77b-90ec7af7d53f, !- Friday Schedule:Day Name
  d9318bd6-45e4-4c6e-a6b2-45c7dccfe036, !- Saturday Schedule:Day Name
  173a3c5b-6f92-4ca6-9f0e-244ffac931a2, !- Holiday Schedule:Day Name
  173a3c5b-6f92-4ca6-9f0e-244ffac931a2, !- SummerDesignDay Schedule:Day Name
  173a3c5b-6f92-4ca6-9f0e-244ffac931a2, !- WinterDesignDay Schedule:Day Name
  173a3c5b-6f92-4ca6-9f0e-244ffac931a2, !- CustomDay1 Schedule:Day Name
  173a3c5b-6f92-4ca6-9f0e-244ffac931a2; !- CustomDay2 Schedule:Day Name

Schedule:Week:Daily, MechVentAvail_Zone_0_6,
  3624dfa3-d9d9-498d-9e20-06e8e00cf470, !- Sunday Schedule:Day Name
  67b5a175-1fd3-4d4a-983d-e3cced3edf27, !- Monday Schedule:Day Name
  cdb81cbb-fde1-4456-a103-892fadcdade4, !- Tuesday Schedule:Day Name
  0a27d46e-0025-4ed1-a9ba-e2fb4c2d1fe4, !- Wednesday Schedule:Day Name
  8fdb9f43-f98f-409e-b0d1-73a9be143908, !- Thursday Schedule:Day Name
  b5191b74-66d0-43f3-9acf-947efe61db5a, !- Friday Schedule:Day Name
  fed7032a-de7c-4f09-9247-478ff5a78e8a, !- Saturday Schedule:Day Name
  3624dfa3-d9d9-498d-9e20-06e8e00cf470, !- Holiday Schedule:Day Name
  3624dfa3-d9d9-498d-9e20-06e8e00cf470, !- SummerDesignDay Schedule:Day Name
  3624dfa3-d9d9-498d-9e20-06e8e00cf470, !- WinterDesignDay Schedule:Day Name
  3624dfa3-d9d9-498d-9e20-06e8e00cf470, !- CustomDay1 Schedule:Day Name
  3624dfa3-d9d9-498d-9e20-06e8e00cf470; !- CustomDay2 Schedule:Day Name

Schedule:Week:Daily, MechVentAvail_Zone_0_7,
  c8127eb5-13be-46a6-8e1c-8ab251adc347, !- Sunday Schedule:Day Name
  c5da146a-7fe7-4e89-8fdb-23770534d285, !- Monday Schedule:Day Name
  e9ce64f4-f0d0-4e34-a757-67552803a17d, !- Tuesday Schedule:Day Name
  5fae9a4a-0183-4bba-bc4b-251889534ca4, !- Wednesday Schedule:Day Name
  2929a138-1660-4b55-90c0-9f4d0cf14264, !- Thursday Schedule:Day Name
  a2806f5e-cc7e-4ab3-b8b5-036361ad0be6, !- Friday Schedule:Day Name
  6d34f87d-404a-4eea-a31d-9aa5e30c93dc, !- Saturday Schedule:Day Name
  c8127eb5-13be-46a6-8e1c-8ab251adc347, !- Holiday Schedule:Day Name
  c8127eb5-13be-46a6-8e1c-8ab251adc347, !- SummerDesignDay Schedule:Day Name
  c8127eb5-13be-46a6-8e1c-8ab251adc347, !- WinterDesignDay Schedule:Day Name
  c8127eb5-13be-46a6-8e1c-8ab251adc347, !- CustomDay1 Schedule:Day Name
  c8127eb5-13be-46a6-8e1c-8ab251adc347; !- CustomDay2 Schedule:Day Name

Schedule:Week:Daily, MechVentAvail_Zone_0_8,
  8598695d-0908-4ae5-b45c-1ec5c0ce0dd9, !- Sunday Schedule:Day Name
  47a935ae-f23d-42b5-b13a-a75eb6c7574c, !- Monday Schedule:Day Name
  9ea4c9e5-dcff-42fc-a5e0-ffb2a21bcde0, !- Tuesday Schedule:Day Name
  6aa7458e-ba47-4ebb-bbac-355ceaf917ac, !- Wednesday Schedule:Day Name
  13fd4666-c351-46ba-b242-2af52b7be5ee, !- Thursday Schedule:Day Name
  b2b72998-069d-4b87-8486-3bfb9409d13a, !- Friday Schedule:Day Name
  6bf10be0-f6d1-42b2-b7f7-fee7ecca2194, !- Saturday Schedule:Day Name
  8598695d-0908-4ae5-b45c-1ec5c0ce0dd9, !- Holiday Schedule:Day Name
  8598695d-0908-4ae5-b45c-1ec5c0ce0dd9, !- SummerDesignDay Schedule:Day Name
  8598695d-0908-4ae5-b45c-1ec5c0ce0dd9, !- WinterDesignDay Schedule:Day Name
  8598695d-0908-4ae5-b45c-1ec5c0ce0dd9, !- CustomDay1 Schedule:Day Name
  8598695d-0908-4ae5-b45c-1ec5c0ce0dd9; !- CustomDay2 Schedule:Day Name

Schedule:Week:Daily, MechVentAvail_Zone_0_9,
  459521f2-5a61-4250-bef6-1112113012dd, !- Sunday Schedule:Day Name
  2292208f-2845-429b-bb48-36c8d8b4e48c, !- Monday Schedule:Day Name
  6bf10be0-f6d1-42b2-b7f7-fee7ecca2194, !- Tuesday Schedule:Day Name
  e26118ea-5186-4172-8c6b-a35f60b5b1e5, !- Wednesday Schedule:Day Name
  eec8f66c-e121-4b67-8ecc-62cb04a25d93, !- Thursday Schedule:Day Name
  36c41bda-17ce-4903-9bf4-7aae47858b31, !- Friday Schedule:Day Name
  650e5035-8585-4697-8746-d79a37c8486d, !- Saturday Schedule:Day Name
  459521f2-5a61-4250-bef6-1112113012dd, !- Holiday Schedule:Day Name
  459521f2-5a61-4250-bef6-1112113012dd, !- SummerDesignDay Schedule:Day Name
  459521f2-5a61-4250-bef6-1112113012dd, !- WinterDesignDay Schedule:Day Name
  459521f2-5a61-4250-bef6-1112113012dd, !- CustomDay1 Schedule:Day Name
  459521f2-5a61-4250-bef6-1112113012dd; !- CustomDay2 Schedule:Day Name

Schedule:Week:Daily, MechVentAvail_Zone_0_10,
  80749889-dadb-48cb-a655-ff23c6ba5b6a, !- Sunday Schedule:Day Name
  6bf10be0-f6d1-42b2-b7f7-fee7ecca2194, !- Monday Schedule:Day Name
  e0e52828-7cdb-4a90-838a-0c1c23b12183, !- Tuesday Schedule:Day Name
  f0115db6-a71b-4640-92f0-770737d62856, !- Wednesday Schedule:Day Name
  eb66565a-3a0c-45e3-abf2-48608562d179, !- Thursday Schedule:Day Name
  9f6e1a9c-7deb-41ad-bae1-43a319a2527a, !- Friday Schedule:Day Name
  3c8e89a2-9075-471a-a763-be3aea2d72cb, !- Saturday Schedule:Day Name
  80749889-dadb-48cb-a655-ff23c6ba5b6a, !- Holiday Schedule:Day Name
  80749889-dadb-48cb-a655-ff23c6ba5b6a, !- SummerDesignDay Schedule:Day Name
  80749889-dadb-48cb-a655-ff23c6ba5b6a, !- WinterDesignDay Schedule:Day Name
  80749889-dadb-48cb-a655-ff23c6ba5b6a, !- CustomDay1 Schedule:Day Name
  80749889-dadb-48cb-a655-ff23c6ba5b6a; !- CustomDay2 Schedule:Day Name

Schedule:Week:Daily, MechVentAvail_Zone_0_11,
  6bf10be0-f6d1-42b2-b7f7-fee7ecca2194, !- Sunday Schedule:Day Name
  76036948-5d5f-4298-ab69-2e66044eb0e4, !- Monday Schedule:Day Name
  e2d8618c-8444-4b1f-931d-77fdf4492413, !- Tuesday Schedule:Day Name
  c74881af-9865-479a-9cda-6c12b9aa4081, !- Wednesday Schedule:Day Name
  a92554cf-7a8b-4c7e-beea-d9e539cad856, !- Thursday Schedule:Day Name
  900352b6-8567-41c0-a874-a1ea5300ae36, !- Friday Schedule:Day Name
  8d65c598-f994-4d17-9f80-0806b0623890, !- Saturday Schedule:Day Name
  6bf10be0-f6d1-42b2-b7f7-fee7ecca2194, !- Holiday Schedule:Day Name
  6bf10be0-f6d1-42b2-b7f7-fee7ecca2194, !- SummerDesignDay Schedule:Day Name
  6bf10be0-f6d1-42b2-b7f7-fee7ecca2194, !- WinterDesignDay Schedule:Day Name
  6bf10be0-f6d1-42b2-b7f7-fee7ecca2194, !- CustomDay1 Schedule:Day Name
  6bf10be0-f6d1-42b2-b7f7-fee7ecca2194; !- CustomDay2 Schedule:Day Name

Schedule:Week:Daily, MechVentAvail_Zone_0_12,
  baf29dc9-2d8a-46c0-859f-f18bd0da22ab, !- Sunday Schedule:Day Name
  8a6b3492-e083-40c5-aa51-ab8a93dd7cf6, !- Monday Schedule:Day Name
  9b77ef3a-6f8f-4932-9b30-c6e980fc680b, !- Tuesday Schedule:Day Name
  8967aa4d-88cc-4e3d-855a-5997934946f3, !- Wednesday Schedule:Day Name
  ee39d697-00d3-4a7d-a87b-48ae385d2e26, !- Thursday Schedule:Day Name
  f719df47-8246-4c65-84d1-2f92cc272685, !- Friday Schedule:Day Name
  37defae6-4713-40da-ba10-cc5639f9dab6, !- Saturday Schedule:Day Name
  baf29dc9-2d8a-46c0-859f-f18bd0da22ab, !- Holiday Schedule:Day Name
  baf29dc9-2d8a-46c0-859f-f18bd0da22ab, !- SummerDesignDay Schedule:Day Name
  baf29dc9-2d8a-46c0-859f-f18bd0da22ab, !- WinterDesignDay Schedule:Day Name
  baf29dc9-2d8a-46c0-859f-f18bd0da22ab, !- CustomDay1 Schedule:Day Name
  baf29dc9-2d8a-46c0-859f-f18bd0da22ab; !- CustomDay2 Schedule:Day Name

Schedule:Week:Daily, MechVentAvail_Zone_0_13,
  445c2965-d68a-4649-92c7-32e51d912d9e, !- Sunday Schedule:Day Name
  17f23b1e-bc73-4d8b-959e-a6c03055f6f0, !- Monday Schedule:Day Name
  5fb45ac4-0577-4554-a574-0de95ce07d0e, !- Tuesday Schedule:Day Name
  b8f263ea-c9af-4f33-bdfd-9ce0bd98058f, !- Wednesday Schedule:Day Name
  24dff24f-8dbf-4efd-9212-9b774f90ba42, !- Thursday Schedule:Day Name
  f611fdf0-2572-43c5-b082-f1eae64a3ce6, !- Friday Schedule:Day Name
  4541d807-e474-402a-903b-ae2befa428d1, !- Saturday Schedule:Day Name
  445c2965-d68a-4649-92c7-32e51d912d9e, !- Holiday Schedule:Day Name
  445c2965-d68a-4649-92c7-32e51d912d9e, !- SummerDesignDay Schedule:Day Name
  445c2965-d68a-4649-92c7-32e51d912d9e, !- WinterDesignDay Schedule:Day Name
  445c2965-d68a-4649-92c7-32e51d912d9e, !- CustomDay1 Schedule:Day Name
  445c2965-d68a-4649-92c7-32e51d912d9e; !- CustomDay2 Schedule:Day Name

Schedule:Week:Daily, MechVentAvail_Zone_0_14,
  cf356f11-1212-4417-97fa-0735ca71a9ab, !- Sunday Schedule:Day Name
  f91da99f-00f2-48c4-ae56-cf34869638f3, !- Monday Schedule:Day Name
  d048da0d-5d6e-4f9a-a795-8de3ca902bdf, !- Tuesday Schedule:Day Name
  190d0247-2bda-4784-8e60-7c67e017307d, !- Wednesday Schedule:Day Name
  73c456bc-99ee-4c52-bf99-797e61b6e482, !- Thursday Schedule:Day Name
  de609169-ed74-4ff6-8260-191d73b4bdcc, !- Friday Schedule:Day Name
  54fb2f69-c7c4-4e69-b71f-8d5c25f28460, !- Saturday Schedule:Day Name
  cf356f11-1212-4417-97fa-0735ca71a9ab, !- Holiday Schedule:Day Name
  cf356f11-1212-4417-97fa-0735ca71a9ab, !- SummerDesignDay Schedule:Day Name
  cf356f11-1212-4417-97fa-0735ca71a9ab, !- WinterDesignDay Schedule:Day Name
  cf356f11-1212-4417-97fa-0735ca71a9ab, !- CustomDay1 Schedule:Day Name
  cf356f11-1212-4417-97fa-0735ca71a9ab; !- CustomDay2 Schedule:Day Name

Schedule:Week:Daily, MechVentAvail_Zone_0_15,
  5a3077c5-6529-4acc-bf47-0f8893dd8d6c, !- Sunday Schedule:Day Name
  005f949a-5569-4b14-b96d-eb8998b7f2c9, !- Monday Schedule:Day Name
  52e2ade8-1f00-496b-9824-a73b9e2fd094, !- Tuesday Schedule:Day Name
  3b21223f-68a8-4be7-974c-23edd7627b52, !- Wednesday Schedule:Day Name
  700a86a3-c248-472e-a724-58b2bdaea0c0, !- Thursday Schedule:Day Name
  13d69347-03a3-4421-b1a3-e150d12f5152, !- Friday Schedule:Day Name
  03750ff8-abe3-47dc-8a36-8e2b9823c399, !- Saturday Schedule:Day Name
  5a3077c5-6529-4acc-bf47-0f8893dd8d6c, !- Holiday Schedule:Day Name
  5a3077c5-6529-4acc-bf47-0f8893dd8d6c, !- SummerDesignDay Schedule:Day Name
  5a3077c5-6529-4acc-bf47-0f8893dd8d6c, !- WinterDesignDay Schedule:Day Name
  5a3077c5-6529-4acc-bf47-0f8893dd8d6c, !- CustomDay1 Schedule:Day Name
  5a3077c5-6529-4acc-bf47-0f8893dd8d6c; !- CustomDay2 Schedule:Day Name

Schedule:Week:Daily, MechVentAvail_Zone_0_16,
  5ab05ab3-b1af-4255-b127-d34ad17933b2, !- Sunday Schedule:Day Name
  e4f44599-e79e-4247-8cb8-fa2dc344c39d, !- Monday Schedule:Day Name
  cba2dbf9-67c6-4c93-a4db-e820dae3204b, !- Tuesday Schedule:Day Name
  873b6a4e-3d96-4138-a12d-423740b44d1e, !- Wednesday Schedule:Day Name
  fcbe0f6d-2377-4457-b210-3fa5220d421b, !- Thursday Schedule:Day Name
  174cbcc6-2b20-4967-a4d4-7bc75d614806, !- Friday Schedule:Day Name
  bb9082ca-1504-4933-822d-fa32c990714c, !- Saturday Schedule:Day Name
  5ab05ab3-b1af-4255-b127-d34ad17933b2, !- Holiday Schedule:Day Name
  5ab05ab3-b1af-4255-b127-d34ad17933b2, !- SummerDesignDay Schedule:Day Name
  5ab05ab3-b1af-4255-b127-d34ad17933b2, !- WinterDesignDay Schedule:Day Name
  5ab05ab3-b1af-4255-b127-d34ad17933b2, !- CustomDay1 Schedule:Day Name
  5ab05ab3-b1af-4255-b127-d34ad17933b2; !- CustomDay2 Schedule:Day Name

Schedule:Week:Daily, MechVentAvail_Zone_0_17,
  1a41d748-84e7-4e9f-9eae-29ec90adbabc, !- Sunday Schedule:Day Name
  6f9a280c-f113-4df8-be47-a3bfe5226045, !- Monday Schedule:Day Name
  7c84806f-9c50-4994-b1d5-6df72d261e57, !- Tuesday Schedule:Day Name
  8037efc8-13b6-4a93-94dd-cd9c610bbcd2, !- Wednesday Schedule:Day Name
  c9abe060-4dd1-4f50-8d8c-ecfd4b0bc287, !- Thursday Schedule:Day Name
  e63e00f2-58f7-4067-a124-0d1c072ae056, !- Friday Schedule:Day Name
  d5c8d91d-91c5-4d26-9efd-40254dbc03d1, !- Saturday Schedule:Day Name
  1a41d748-84e7-4e9f-9eae-29ec90adbabc, !- Holiday Schedule:Day Name
  1a41d748-84e7-4e9f-9eae-29ec90adbabc, !- SummerDesignDay Schedule:Day Name
  1a41d748-84e7-4e9f-9eae-29ec90adbabc, !- WinterDesignDay Schedule:Day Name
  1a41d748-84e7-4e9f-9eae-29ec90adbabc, !- CustomDay1 Schedule:Day Name
  1a41d748-84e7-4e9f-9eae-29ec90adbabc; !- CustomDay2 Schedule:Day Name

Schedule:Week:Daily, MechVentAvail_Zone_0_18,
  56767e32-0bbe-4584-a736-3ad97285764f, !- Sunday Schedule:Day Name
  ee7902c7-d035-436e-a2fd-e21eac2f445f, !- Monday Schedule:Day Name
  99f79bd4-46e3-417d-93f6-9dce57a70617, !- Tuesday Schedule:Day Name
  56767e32-0bbe-4584-a736-3ad97285764f, !- Wednesday Schedule:Day Name
  d3626a7e-168d-4c03-8cb7-2788b177a6a8, !- Thursday Schedule:Day Name
  5b12d769-f2eb-4bce-91d2-b084a38cf1a7, !- Friday Schedule:Day Name
  6fa8b0f2-524f-4750-a1d2-6686eae5b4d9, !- Saturday Schedule:Day Name
  56767e32-0bbe-4584-a736-3ad97285764f, !- Holiday Schedule:Day Name
  56767e32-0bbe-4584-a736-3ad97285764f, !- SummerDesignDay Schedule:Day Name
  56767e32-0bbe-4584-a736-3ad97285764f, !- WinterDesignDay Schedule:Day Name
  56767e32-0bbe-4584-a736-3ad97285764f, !- CustomDay1 Schedule:Day Name
  56767e32-0bbe-4584-a736-3ad97285764f; !- CustomDay2 Schedule:Day Name

Schedule:Week:Daily, MechVentAvail_Zone_0_19,
  ba701114-7120-428a-ad82-ddaf91083595, !- Sunday Schedule:Day Name
  5ab47c27-6665-4fb4-bcea-afccf7fff385, !- Monday Schedule:Day Name
  c8653ceb-114b-470c-bd22-1020441d18ba, !- Tuesday Schedule:Day Name
  299e4ed5-6e00-431b-adf6-6c5f359e0624, !- Wednesday Schedule:Day Name
  dd024e59-59e9-4ec0-b340-24a72d16a332, !- Thursday Schedule:Day Name
  bc5682cf-dbcc-4b62-9317-e1f1ad267d16, !- Friday Schedule:Day Name
  16bdee08-d361-4b29-a00e-2c5b6f4287bf, !- Saturday Schedule:Day Name
  ba701114-7120-428a-ad82-ddaf91083595, !- Holiday Schedule:Day Name
  ba701114-7120-428a-ad82-ddaf91083595, !- SummerDesignDay Schedule:Day Name
  ba701114-7120-428a-ad82-ddaf91083595, !- WinterDesignDay Schedule:Day Name
  ba701114-7120-428a-ad82-ddaf91083595, !- CustomDay1 Schedule:Day Name
  ba701114-7120-428a-ad82-ddaf91083595; !- CustomDay2 Schedule:Day Name

Schedule:Week:Daily, MechVentAvail_Zone_0_20,
  d6000f41-bb7b-45ed-b57a-afc1b073e2b7, !- Sunday Schedule:Day Name
  b65bf38e-3a35-4375-9410-f2335e962c88, !- Monday Schedule:Day Name
  ba701114-7120-428a-ad82-ddaf91083595, !- Tuesday Schedule:Day Name
  fcd7c620-d12f-4264-99fa-12fe2d0fe360, !- Wednesday Schedule:Day Name
  b0e7f3e7-0b0a-47e6-8ce3-1c4db2f07d11, !- Thursday Schedule:Day Name
  f184602a-fd31-4090-b52c-4353cb4ac094, !- Friday Schedule:Day Name
  bd2ac4d5-fa12-4449-a241-cc3671ba5225, !- Saturday Schedule:Day Name
  d6000f41-bb7b-45ed-b57a-afc1b073e2b7, !- Holiday Schedule:Day Name
  d6000f41-bb7b-45ed-b57a-afc1b073e2b7, !- SummerDesignDay Schedule:Day Name
  d6000f41-bb7b-45ed-b57a-afc1b073e2b7, !- WinterDesignDay Schedule:Day Name
  d6000f41-bb7b-45ed-b57a-afc1b073e2b7, !- CustomDay1 Schedule:Day Name
  d6000f41-bb7b-45ed-b57a-afc1b073e2b7; !- CustomDay2 Schedule:Day Name

Schedule:Week:Daily, MechVentAvail_Zone_0_21,
  2d9e612a-7c91-4d10-a7cc-a66538fbc4e2, !- Sunday Schedule:Day Name
  ffa688da-0411-44dd-9d70-72703ae6793f, !- Monday Schedule:Day Name
  82b83fac-625c-4f48-ae0d-23de262ce1d7, !- Tuesday Schedule:Day Name
  f5dedbc6-e168-4066-87d3-7737789f1eec, !- Wednesday Schedule:Day Name
  3908fc97-3355-42f9-a5f0-17b85040369a, !- Thursday Schedule:Day Name
  441b293e-0602-4a86-ba3b-95f8a9617749, !- Friday Schedule:Day Name
  2cad1ec2-4263-4796-8c4d-cb13d4fa78d7, !- Saturday Schedule:Day Name
  2d9e612a-7c91-4d10-a7cc-a66538fbc4e2, !- Holiday Schedule:Day Name
  2d9e612a-7c91-4d10-a7cc-a66538fbc4e2, !- SummerDesignDay Schedule:Day Name
  2d9e612a-7c91-4d10-a7cc-a66538fbc4e2, !- WinterDesignDay Schedule:Day Name
  2d9e612a-7c91-4d10-a7cc-a66538fbc4e2, !- CustomDay1 Schedule:Day Name
  2d9e612a-7c91-4d10-a7cc-a66538fbc4e2; !- CustomDay2 Schedule:Day Name

Schedule:Week:Daily, MechVentAvail_Zone_0_22,
  09dc48e1-efa4-4e49-a927-84a0933d98ab, !- Sunday Schedule:Day Name
  988bcd57-c17a-4639-b57e-eb5c7ba8262e, !- Monday Schedule:Day Name
  06e69188-7907-4533-95c3-5364d0cb791f, !- Tuesday Schedule:Day Name
  65443338-ecc9-491c-8e3c-de1552718c27, !- Wednesday Schedule:Day Name
  ae68125d-280e-4a5f-a8d5-b193018a8ac9, !- Thursday Schedule:Day Name
  85b21898-48cb-4375-96c5-dc00d1059298, !- Friday Schedule:Day Name
  d2be773e-9853-48d9-b5f6-a2d711cee537, !- Saturday Schedule:Day Name
  09dc48e1-efa4-4e49-a927-84a0933d98ab, !- Holiday Schedule:Day Name
  09dc48e1-efa4-4e49-a927-84a0933d98ab, !- SummerDesignDay Schedule:Day Name
  09dc48e1-efa4-4e49-a927-84a0933d98ab, !- WinterDesignDay Schedule:Day Name
  09dc48e1-efa4-4e49-a927-84a0933d98ab, !- CustomDay1 Schedule:Day Name
  09dc48e1-efa4-4e49-a927-84a0933d98ab; !- CustomDay2 Schedule:Day Name

Schedule:Week:Daily, MechVentAvail_Zone_0_23,
  a6e490b1-8780-410f-80c0-f6a94a7a68a3, !- Sunday Schedule:Day Name
  0bdf1e4c-e64a-4a98-b225-d7286654d542, !- Monday Schedule:Day Name
  bcf447b6-8acd-48a3-b0fa-01d10871c608, !- Tuesday Schedule:Day Name
  d693a4b4-7284-4f9f-951e-67121e27e855, !- Wednesday Schedule:Day Name
  44f43c23-ed09-4daf-a0f3-317aa98009c0, !- Thursday Schedule:Day Name
  b88c0806-e919-4a23-821f-b640699859c1, !- Friday Schedule:Day Name
  fb5b515e-8c7a-48d7-86a2-7d42d0825d69, !- Saturday Schedule:Day Name
  a6e490b1-8780-410f-80c0-f6a94a7a68a3, !- Holiday Schedule:Day Name
  a6e490b1-8780-410f-80c0-f6a94a7a68a3, !- SummerDesignDay Schedule:Day Name
  a6e490b1-8780-410f-80c0-f6a94a7a68a3, !- WinterDesignDay Schedule:Day Name
  a6e490b1-8780-410f-80c0-f6a94a7a68a3, !- CustomDay1 Schedule:Day Name
  a6e490b1-8780-410f-80c0-f6a94a7a68a3; !- CustomDay2 Schedule:Day Name

Schedule:Week:Daily, MechVentAvail_Zone_0_24,
  bc494091-d086-494c-a6e8-676ddecb8490, !- Sunday Schedule:Day Name
  6b5617f7-a3bd-4afd-859b-ae8e27d032a0, !- Monday Schedule:Day Name
  fed21e98-cc81-4a2f-9d92-313f98c174c0, !- Tuesday Schedule:Day Name
  bf34a027-6a11-4120-9c15-5fe23a1c0184, !- Wednesday Schedule:Day Name
  feacbf2d-9493-4998-947d-4cc14bcbe2b5, !- Thursday Schedule:Day Name
  f29213d9-6cd8-4b0c-a869-7c28f96644df, !- Friday Schedule:Day Name
  d5f4d274-0c7a-4976-ab4c-c97a5b730c77, !- Saturday Schedule:Day Name
  bc494091-d086-494c-a6e8-676ddecb8490, !- Holiday Schedule:Day Name
  bc494091-d086-494c-a6e8-676ddecb8490, !- SummerDesignDay Schedule:Day Name
  bc494091-d086-494c-a6e8-676ddecb8490, !- WinterDesignDay Schedule:Day Name
  bc494091-d086-494c-a6e8-676ddecb8490, !- CustomDay1 Schedule:Day Name
  bc494091-d086-494c-a6e8-676ddecb8490; !- CustomDay2 Schedule:Day Name

Schedule:Week:Daily, MechVentAvail_Zone_0_25,
  2460e41d-3332-4a28-aefc-0efdb1055dc2, !- Sunday Schedule:Day Name
  e497de92-5bfe-4dbc-aba1-72e8d7e1619e, !- Monday Schedule:Day Name
  2b103ae3-cff9-48dc-a7cd-95ddd8d247a1, !- Tuesday Schedule:Day Name
  c7fdae3b-665f-439c-8bf2-8c1810a98bc6, !- Wednesday Schedule:Day Name
  d81dddf7-af21-4780-8db8-95a03fef33bd, !- Thursday Schedule:Day Name
  12c814b5-42fe-494f-9831-5e8450348377, !- Friday Schedule:Day Name
  c14b5db2-bb33-4589-ac6a-cde458e66fef, !- Saturday Schedule:Day Name
  2460e41d-3332-4a28-aefc-0efdb1055dc2, !- Holiday Schedule:Day Name
  2460e41d-3332-4a28-aefc-0efdb1055dc2, !- SummerDesignDay Schedule:Day Name
  2460e41d-3332-4a28-aefc-0efdb1055dc2, !- WinterDesignDay Schedule:Day Name
  2460e41d-3332-4a28-aefc-0efdb1055dc2, !- CustomDay1 Schedule:Day Name
  2460e41d-3332-4a28-aefc-0efdb1055dc2; !- CustomDay2 Schedule:Day Name

Schedule:Week:Daily, MechVentAvail_Zone_0_26,
  203f84ad-dd81-4292-9bd3-b34fef127576, !- Sunday Schedule:Day Name
  e5e8ad67-8b0b-4852-a071-0c1651beece7, !- Monday Schedule:Day Name
  54296a64-0089-4074-9c9e-132eec36a17d, !- Tuesday Schedule:Day Name
  78147d6d-f0e7-4a3c-b0cc-fa2e9ab0f3dc, !- Wednesday Schedule:Day Name
  54eb0daf-bc92-4d96-96a8-27b4a3b3ab42, !- Thursday Schedule:Day Name
  03e1b542-975f-44a0-95b7-bf40f2fbd275, !- Friday Schedule:Day Name
  ac315ea3-b06d-49ed-b1d1-5054dc91f7c0, !- Saturday Schedule:Day Name
  203f84ad-dd81-4292-9bd3-b34fef127576, !- Holiday Schedule:Day Name
  203f84ad-dd81-4292-9bd3-b34fef127576, !- SummerDesignDay Schedule:Day Name
  203f84ad-dd81-4292-9bd3-b34fef127576, !- WinterDesignDay Schedule:Day Name
  203f84ad-dd81-4292-9bd3-b34fef127576, !- CustomDay1 Schedule:Day Name
  203f84ad-dd81-4292-9bd3-b34fef127576; !- CustomDay2 Schedule:Day Name

Schedule:Week:Daily, MechVentAvail_Zone_0_27,
  a74eb03a-a13e-4bf3-99f2-b5a56bff7dbc, !- Sunday Schedule:Day Name
  92dca615-0297-4730-aefa-3b81817bd22c, !- Monday Schedule:Day Name
  b8025866-3654-473c-8bc1-0ba4f2893154, !- Tuesday Schedule:Day Name
  433db98a-a20d-4841-8b8a-a1d7e7a3c249, !- Wednesday Schedule:Day Name
  3e854e13-7400-4d4c-8724-f10f6e038dc1, !- Thursday Schedule:Day Name
  914fc65a-65aa-4205-aed3-26715ee28154, !- Friday Schedule:Day Name
  839fd083-3dbd-4375-9952-c691495287d2, !- Saturday Schedule:Day Name
  a74eb03a-a13e-4bf3-99f2-b5a56bff7dbc, !- Holiday Schedule:Day Name
  a74eb03a-a13e-4bf3-99f2-b5a56bff7dbc, !- SummerDesignDay Schedule:Day Name
  a74eb03a-a13e-4bf3-99f2-b5a56bff7dbc, !- WinterDesignDay Schedule:Day Name
  a74eb03a-a13e-4bf3-99f2-b5a56bff7dbc, !- CustomDay1 Schedule:Day Name
  a74eb03a-a13e-4bf3-99f2-b5a56bff7dbc; !- CustomDay2 Schedule:Day Name

Schedule:Week:Daily, MechVentAvail_Zone_0_28,
  7a9f45a6-7bd1-4934-a33a-864da3353612, !- Sunday Schedule:Day Name
  86398017-033e-4fd4-99d2-5dc76c0c5157, !- Monday Schedule:Day Name
  ae940f5e-48f8-4872-af59-07b72ce14b47, !- Tuesday Schedule:Day Name
  b95c4d5e-26a9-4707-9df0-f76313d06b9b, !- Wednesday Schedule:Day Name
  8037efc8-13b6-4a93-94dd-cd9c610bbcd2, !- Thursday Schedule:Day Name
  35b02d20-7958-42f8-8221-3676ababc8f7, !- Friday Schedule:Day Name
  2d9e612a-7c91-4d10-a7cc-a66538fbc4e2, !- Saturday Schedule:Day Name
  7a9f45a6-7bd1-4934-a33a-864da3353612, !- Holiday Schedule:Day Name
  7a9f45a6-7bd1-4934-a33a-864da3353612, !- SummerDesignDay Schedule:Day Name
  7a9f45a6-7bd1-4934-a33a-864da3353612, !- WinterDesignDay Schedule:Day Name
  7a9f45a6-7bd1-4934-a33a-864da3353612, !- CustomDay1 Schedule:Day Name
  7a9f45a6-7bd1-4934-a33a-864da3353612; !- CustomDay2 Schedule:Day Name

Schedule:Week:Daily, MechVentAvail_Zone_0_29,
  8e08edd5-54b0-4f9a-aa5b-5d6334086c43, !- Sunday Schedule:Day Name
  67f88dbc-49c9-4911-ba1c-78ebb7d7d587, !- Monday Schedule:Day Name
  c7165080-6564-4f63-8eb2-5283c76803c6, !- Tuesday Schedule:Day Name
  883197e9-7c75-4b18-a137-2211aa266f75, !- Wednesday Schedule:Day Name
  8037efc8-13b6-4a93-94dd-cd9c610bbcd2, !- Thursday Schedule:Day Name
  8037efc8-13b6-4a93-94dd-cd9c610bbcd2, !- Friday Schedule:Day Name
  229aaf90-c371-42d9-a0d0-5becb96f7fb4, !- Saturday Schedule:Day Name
  8e08edd5-54b0-4f9a-aa5b-5d6334086c43, !- Holiday Schedule:Day Name
  8e08edd5-54b0-4f9a-aa5b-5d6334086c43, !- SummerDesignDay Schedule:Day Name
  8e08edd5-54b0-4f9a-aa5b-5d6334086c43, !- WinterDesignDay Schedule:Day Name
  8e08edd5-54b0-4f9a-aa5b-5d6334086c43, !- CustomDay1 Schedule:Day Name
  8e08edd5-54b0-4f9a-aa5b-5d6334086c43; !- CustomDay2 Schedule:Day Name

Schedule:Week:Daily, MechVentAvail_Zone_0_30,
  1f6c8006-6d32-4bd7-9267-d0568a08bb0b, !- Sunday Schedule:Day Name
  6bf10be0-f6d1-42b2-b7f7-fee7ecca2194, !- Monday Schedule:Day Name
  63ac0d5d-a4de-49a6-827c-0b2b6ce9044e, !- Tuesday Schedule:Day Name
  55e9b221-8cd5-4b2f-b3b4-4624d3cab62b, !- Wednesday Schedule:Day Name
  f5b311a1-8d18-420e-891f-46a6fcdf9abb, !- Thursday Schedule:Day Name
  18d54636-aa9f-4fcc-b42e-b564506e06e2, !- Friday Schedule:Day Name
  5bbd3b37-34ac-4bc2-a72d-0bb5cd506a53, !- Saturday Schedule:Day Name
  1f6c8006-6d32-4bd7-9267-d0568a08bb0b, !- Holiday Schedule:Day Name
  1f6c8006-6d32-4bd7-9267-d0568a08bb0b, !- SummerDesignDay Schedule:Day Name
  1f6c8006-6d32-4bd7-9267-d0568a08bb0b, !- WinterDesignDay Schedule:Day Name
  1f6c8006-6d32-4bd7-9267-d0568a08bb0b, !- CustomDay1 Schedule:Day Name
  1f6c8006-6d32-4bd7-9267-d0568a08bb0b; !- CustomDay2 Schedule:Day Name

Schedule:Week:Daily, MechVentAvail_Zone_0_31,
  2ee66fcd-9fef-45a2-9cee-d5d2b2ccdd93, !- Sunday Schedule:Day Name
  fcd7c620-d12f-4264-99fa-12fe2d0fe360, !- Monday Schedule:Day Name
  c7165080-6564-4f63-8eb2-5283c76803c6, !- Tuesday Schedule:Day Name
  8a68abc0-028d-424c-906b-54e3ab565606, !- Wednesday Schedule:Day Name
  662e4420-3d47-4f74-96ef-4a0cf9a2761d, !- Thursday Schedule:Day Name
  f8a50c2a-6260-4063-bcfb-7e7a4cbff610, !- Friday Schedule:Day Name
  d4fb3544-7271-445d-8c74-9fa366beefc6, !- Saturday Schedule:Day Name
  2ee66fcd-9fef-45a2-9cee-d5d2b2ccdd93, !- Holiday Schedule:Day Name
  2ee66fcd-9fef-45a2-9cee-d5d2b2ccdd93, !- SummerDesignDay Schedule:Day Name
  2ee66fcd-9fef-45a2-9cee-d5d2b2ccdd93, !- WinterDesignDay Schedule:Day Name
  2ee66fcd-9fef-45a2-9cee-d5d2b2ccdd93, !- CustomDay1 Schedule:Day Name
  2ee66fcd-9fef-45a2-9cee-d5d2b2ccdd93; !- CustomDay2 Schedule:Day Name

Schedule:Week:Daily, MechVentAvail_Zone_0_32,
  54602601-31f4-4de8-bab0-49069784a2b2, !- Sunday Schedule:Day Name
  fb1a1a3e-c698-47bb-9f10-6429565ac78b, !- Monday Schedule:Day Name
  6361670f-08e3-4ce5-9183-c40ed6bec7d6, !- Tuesday Schedule:Day Name
  2d197532-ed74-48b5-a3ea-029b100b3b4c, !- Wednesday Schedule:Day Name
  ef172fd1-1166-4244-9b81-ac9c25ee7140, !- Thursday Schedule:Day Name
  068aa1ea-f92b-4c52-babd-3ba28e088db9, !- Friday Schedule:Day Name
  7be5f930-c9d1-41d1-9f73-8dc014247f47, !- Saturday Schedule:Day Name
  54602601-31f4-4de8-bab0-49069784a2b2, !- Holiday Schedule:Day Name
  54602601-31f4-4de8-bab0-49069784a2b2, !- SummerDesignDay Schedule:Day Name
  54602601-31f4-4de8-bab0-49069784a2b2, !- WinterDesignDay Schedule:Day Name
  54602601-31f4-4de8-bab0-49069784a2b2, !- CustomDay1 Schedule:Day Name
  54602601-31f4-4de8-bab0-49069784a2b2; !- CustomDay2 Schedule:Day Name

Schedule:Week:Daily, MechVentAvail_Zone_0_33,
  d479f743-58bb-4381-bc34-0454e4f3726c, !- Sunday Schedule:Day Name
  869f6279-ab4c-45cb-a40c-31db3e045f15, !- Monday Schedule:Day Name
  67f79f5d-879f-44f8-b647-1131f74ce983, !- Tuesday Schedule:Day Name
  971dca29-db39-4082-851a-6dd26ee656e9, !- Wednesday Schedule:Day Name
  42499e71-9635-43f8-97cf-54b25431c190, !- Thursday Schedule:Day Name
  82b83fac-625c-4f48-ae0d-23de262ce1d7, !- Friday Schedule:Day Name
  64895081-95d1-4410-b027-bdd143a5df6e, !- Saturday Schedule:Day Name
  d479f743-58bb-4381-bc34-0454e4f3726c, !- Holiday Schedule:Day Name
  d479f743-58bb-4381-bc34-0454e4f3726c, !- SummerDesignDay Schedule:Day Name
  d479f743-58bb-4381-bc34-0454e4f3726c, !- WinterDesignDay Schedule:Day Name
  d479f743-58bb-4381-bc34-0454e4f3726c, !- CustomDay1 Schedule:Day Name
  d479f743-58bb-4381-bc34-0454e4f3726c; !- CustomDay2 Schedule:Day Name

Schedule:Week:Daily, MechVentAvail_Zone_0_34,
  3134f503-972f-4fe3-82ba-8d4e92bfc7da, !- Sunday Schedule:Day Name
  ed6fd3f3-43f2-4ef0-8dd7-7a0b72b31cbb, !- Monday Schedule:Day Name
  0842cef2-874f-47ca-bd6f-c995717f89f5, !- Tuesday Schedule:Day Name
  5261cf2e-85ba-4db6-9ce7-fee0a797b286, !- Wednesday Schedule:Day Name
  cae36862-1c9f-4ffe-9071-76cd90ed5ab1, !- Thursday Schedule:Day Name
  079eeea1-b62c-473a-85e8-522c02ef6f9d, !- Friday Schedule:Day Name
  7e625d85-241e-46f6-b824-82f7e8309bd2, !- Saturday Schedule:Day Name
  3134f503-972f-4fe3-82ba-8d4e92bfc7da, !- Holiday Schedule:Day Name
  3134f503-972f-4fe3-82ba-8d4e92bfc7da, !- SummerDesignDay Schedule:Day Name
  3134f503-972f-4fe3-82ba-8d4e92bfc7da, !- WinterDesignDay Schedule:Day Name
  3134f503-972f-4fe3-82ba-8d4e92bfc7da, !- CustomDay1 Schedule:Day Name
  3134f503-972f-4fe3-82ba-8d4e92bfc7da; !- CustomDay2 Schedule:Day Name

Schedule:Week:Daily, MechVentAvail_Zone_0_35,
  ea964e5a-72c8-42ab-b0bd-6840932f00e1, !- Sunday Schedule:Day Name
  7ae45e4a-7fd6-41e5-8a4e-fe4adb9c3dce, !- Monday Schedule:Day Name
  19df4775-b0ea-4311-b4c7-9b47212df40c, !- Tuesday Schedule:Day Name
  d1d83a89-aa02-48bd-bd42-bc8bb0993573, !- Wednesday Schedule:Day Name
  fed7032a-de7c-4f09-9247-478ff5a78e8a, !- Thursday Schedule:Day Name
  8e8bb3cb-8142-4bc1-9217-54d946ff4a27, !- Friday Schedule:Day Name
  7624fc2b-1449-4fb3-8063-622a8346a11d, !- Saturday Schedule:Day Name
  ea964e5a-72c8-42ab-b0bd-6840932f00e1, !- Holiday Schedule:Day Name
  ea964e5a-72c8-42ab-b0bd-6840932f00e1, !- SummerDesignDay Schedule:Day Name
  ea964e5a-72c8-42ab-b0bd-6840932f00e1, !- WinterDesignDay Schedule:Day Name
  ea964e5a-72c8-42ab-b0bd-6840932f00e1, !- CustomDay1 Schedule:Day Name
  ea964e5a-72c8-42ab-b0bd-6840932f00e1; !- CustomDay2 Schedule:Day Name

Schedule:Week:Daily, MechVentAvail_Zone_0_36,
  af5e5cc7-e4d6-4050-8d03-adeff9a77ade, !- Sunday Schedule:Day Name
  d6000f41-bb7b-45ed-b57a-afc1b073e2b7, !- Monday Schedule:Day Name
  20a2ea15-0366-4157-a8c0-57d473969917, !- Tuesday Schedule:Day Name
  f07b88ba-faba-4079-b627-1374bd56611b, !- Wednesday Schedule:Day Name
  b20c4fbb-534b-4f67-bcc6-599de88231cd, !- Thursday Schedule:Day Name
  dab0f51d-b6c7-402d-9076-f670d8a8be3a, !- Friday Schedule:Day Name
  2b103ae3-cff9-48dc-a7cd-95ddd8d247a1, !- Saturday Schedule:Day Name
  af5e5cc7-e4d6-4050-8d03-adeff9a77ade, !- Holiday Schedule:Day Name
  af5e5cc7-e4d6-4050-8d03-adeff9a77ade, !- SummerDesignDay Schedule:Day Name
  af5e5cc7-e4d6-4050-8d03-adeff9a77ade, !- WinterDesignDay Schedule:Day Name
  af5e5cc7-e4d6-4050-8d03-adeff9a77ade, !- CustomDay1 Schedule:Day Name
  af5e5cc7-e4d6-4050-8d03-adeff9a77ade; !- CustomDay2 Schedule:Day Name

Schedule:Week:Daily, MechVentAvail_Zone_0_37,
  8037efc8-13b6-4a93-94dd-cd9c610bbcd2, !- Sunday Schedule:Day Name
  a3895398-1c9f-41ad-a557-52d5878792ae, !- Monday Schedule:Day Name
  c23acc3e-60bf-4750-8b05-9199dcac2b66, !- Tuesday Schedule:Day Name
  836068ed-9d2b-442f-ad17-65d6e156eb7f, !- Wednesday Schedule:Day Name
  1baf96c9-a5a4-4043-be5b-f3283d23d3d7, !- Thursday Schedule:Day Name
  5dcdb427-e9f7-4689-9180-3caf423e22ed, !- Friday Schedule:Day Name
  7a23f633-3cc0-42d7-81b6-4b350cb7b05f, !- Saturday Schedule:Day Name
  8037efc8-13b6-4a93-94dd-cd9c610bbcd2, !- Holiday Schedule:Day Name
  8037efc8-13b6-4a93-94dd-cd9c610bbcd2, !- SummerDesignDay Schedule:Day Name
  8037efc8-13b6-4a93-94dd-cd9c610bbcd2, !- WinterDesignDay Schedule:Day Name
  8037efc8-13b6-4a93-94dd-cd9c610bbcd2, !- CustomDay1 Schedule:Day Name
  8037efc8-13b6-4a93-94dd-cd9c610bbcd2; !- CustomDay2 Schedule:Day Name

Schedule:Week:Daily, MechVentAvail_Zone_0_38,
  93237feb-5df3-46aa-8b07-617937b658ed, !- Sunday Schedule:Day Name
  2111913f-7513-48a7-b5ce-ad86985c307c, !- Monday Schedule:Day Name
  af5e5cc7-e4d6-4050-8d03-adeff9a77ade, !- Tuesday Schedule:Day Name
  62396e1b-6101-4778-9a89-c3df6b012de8, !- Wednesday Schedule:Day Name
  c88f0633-769b-4102-ae75-12d9dbdc8829, !- Thursday Schedule:Day Name
  001a5d9e-2975-4612-a3d7-69e5931aa604, !- Friday Schedule:Day Name
  3fc9ed15-e43c-4b4e-ac0d-8b756d89cf34, !- Saturday Schedule:Day Name
  93237feb-5df3-46aa-8b07-617937b658ed, !- Holiday Schedule:Day Name
  93237feb-5df3-46aa-8b07-617937b658ed, !- SummerDesignDay Schedule:Day Name
  93237feb-5df3-46aa-8b07-617937b658ed, !- WinterDesignDay Schedule:Day Name
  93237feb-5df3-46aa-8b07-617937b658ed, !- CustomDay1 Schedule:Day Name
  93237feb-5df3-46aa-8b07-617937b658ed; !- CustomDay2 Schedule:Day Name

Schedule:Week:Daily, MechVentAvail_Zone_0_39,
  d748a229-17c4-4497-a2ae-3035c432b4ba, !- Sunday Schedule:Day Name
  7048c016-b3cc-4d30-b7a2-e82832680144, !- Monday Schedule:Day Name
  45178cf4-77f9-40aa-a0a4-11b28ac7ef65, !- Tuesday Schedule:Day Name
  af41c58c-a08e-4e43-bc5d-241de93dec8d, !- Wednesday Schedule:Day Name
  9f03cfd3-7633-41ee-8cfd-2eb55b373d64, !- Thursday Schedule:Day Name
  50c105d0-a097-4d9e-b7de-f51dfab3287e, !- Friday Schedule:Day Name
  8037efc8-13b6-4a93-94dd-cd9c610bbcd2, !- Saturday Schedule:Day Name
  d748a229-17c4-4497-a2ae-3035c432b4ba, !- Holiday Schedule:Day Name
  d748a229-17c4-4497-a2ae-3035c432b4ba, !- SummerDesignDay Schedule:Day Name
  d748a229-17c4-4497-a2ae-3035c432b4ba, !- WinterDesignDay Schedule:Day Name
  d748a229-17c4-4497-a2ae-3035c432b4ba, !- CustomDay1 Schedule:Day Name
  d748a229-17c4-4497-a2ae-3035c432b4ba; !- CustomDay2 Schedule:Day Name

Schedule:Week:Daily, MechVentAvail_Zone_0_40,
  883197e9-7c75-4b18-a137-2211aa266f75, !- Sunday Schedule:Day Name
  a7bd0efe-3aa0-41ad-a862-0c0766c6b48d, !- Monday Schedule:Day Name
  c2976b59-a9d1-4ec2-afd8-5a25a852f813, !- Tuesday Schedule:Day Name
  0892341c-ce22-48bf-b2d7-a6b54bea3fca, !- Wednesday Schedule:Day Name
  0810e71b-70c5-4420-88cf-15ec6798d871, !- Thursday Schedule:Day Name
  349f065c-2187-4dc3-b9d1-56dd459cd3aa, !- Friday Schedule:Day Name
  01a71e10-1e50-47e8-9dee-a916c16c638e, !- Saturday Schedule:Day Name
  883197e9-7c75-4b18-a137-2211aa266f75, !- Holiday Schedule:Day Name
  883197e9-7c75-4b18-a137-2211aa266f75, !- SummerDesignDay Schedule:Day Name
  883197e9-7c75-4b18-a137-2211aa266f75, !- WinterDesignDay Schedule:Day Name
  883197e9-7c75-4b18-a137-2211aa266f75, !- CustomDay1 Schedule:Day Name
  883197e9-7c75-4b18-a137-2211aa266f75; !- CustomDay2 Schedule:Day Name

Schedule:Week:Daily, MechVentAvail_Zone_0_41,
  00c0e0ef-4640-43c7-a598-4a9e97edaa6d, !- Sunday Schedule:Day Name
  9f40d702-859b-4665-b72c-3fe96d7343c0, !- Monday Schedule:Day Name
  86c1b371-93d3-48e4-a207-f1c1352b0e07, !- Tuesday Schedule:Day Name
  cd0a9f9b-4dd7-42b7-b076-0355e52e6f7b, !- Wednesday Schedule:Day Name
  d67b88e1-e680-47cd-8d1c-4d1d765bc77f, !- Thursday Schedule:Day Name
  e2fff377-7aec-4250-9183-b298a2f973d8, !- Friday Schedule:Day Name
  f14ff8f6-1366-4599-b910-1c5d2465ca29, !- Saturday Schedule:Day Name
  00c0e0ef-4640-43c7-a598-4a9e97edaa6d, !- Holiday Schedule:Day Name
  00c0e0ef-4640-43c7-a598-4a9e97edaa6d, !- SummerDesignDay Schedule:Day Name
  00c0e0ef-4640-43c7-a598-4a9e97edaa6d, !- WinterDesignDay Schedule:Day Name
  00c0e0ef-4640-43c7-a598-4a9e97edaa6d, !- CustomDay1 Schedule:Day Name
  00c0e0ef-4640-43c7-a598-4a9e97edaa6d; !- CustomDay2 Schedule:Day Name

Schedule:Week:Daily, MechVentAvail_Zone_0_42,
  5c89464c-5ef5-470d-8494-ad207c1193eb, !- Sunday Schedule:Day Name
  70fccbbf-0968-4144-81c4-213cfebb1410, !- Monday Schedule:Day Name
  6a72401a-39b8-4c8e-8b0f-e18fc8ead1de, !- Tuesday Schedule:Day Name
  08ea07bc-ec12-43a9-b5e9-4255b164943a, !- Wednesday Schedule:Day Name
  10e9fb05-1858-4299-a879-61cf543e850c, !- Thursday Schedule:Day Name
  482c0ff1-a1cf-4518-9a9b-c9fd94c742e4, !- Friday Schedule:Day Name
  971f1f81-7ffb-4225-a188-1d66d3d201fa, !- Saturday Schedule:Day Name
  5c89464c-5ef5-470d-8494-ad207c1193eb, !- Holiday Schedule:Day Name
  5c89464c-5ef5-470d-8494-ad207c1193eb, !- SummerDesignDay Schedule:Day Name
  5c89464c-5ef5-470d-8494-ad207c1193eb, !- WinterDesignDay Schedule:Day Name
  5c89464c-5ef5-470d-8494-ad207c1193eb, !- CustomDay1 Schedule:Day Name
  5c89464c-5ef5-470d-8494-ad207c1193eb; !- CustomDay2 Schedule:Day Name

Schedule:Week:Daily, MechVentAvail_Zone_0_43,
  6005d886-9535-43e2-8214-16ed1c354114, !- Sunday Schedule:Day Name
  fb266e95-20a3-4bcf-bbe1-b2c024e0e2b5, !- Monday Schedule:Day Name
  c7bf4c7d-8060-4b6f-adbe-915409cfed54, !- Tuesday Schedule:Day Name
  321755bc-5975-4af5-b1da-08a8e318b26e, !- Wednesday Schedule:Day Name
  27c04f71-bc10-47cd-96d5-273982dcbd55, !- Thursday Schedule:Day Name
  4fe47908-5490-47fc-b963-a5acf1d7db7e, !- Friday Schedule:Day Name
  7509aeb8-b5e9-4c74-ac1f-85b5df4f7c3a, !- Saturday Schedule:Day Name
  6005d886-9535-43e2-8214-16ed1c354114, !- Holiday Schedule:Day Name
  6005d886-9535-43e2-8214-16ed1c354114, !- SummerDesignDay Schedule:Day Name
  6005d886-9535-43e2-8214-16ed1c354114, !- WinterDesignDay Schedule:Day Name
  6005d886-9535-43e2-8214-16ed1c354114, !- CustomDay1 Schedule:Day Name
  6005d886-9535-43e2-8214-16ed1c354114; !- CustomDay2 Schedule:Day Name

Schedule:Week:Daily, MechVentAvail_Zone_0_44,
  8524b59a-4086-4eb9-a3a3-9c11016325d2, !- Sunday Schedule:Day Name
  33232023-d3bc-4167-9908-7f5fb7bc4845, !- Monday Schedule:Day Name
  fc63d4ab-520f-4892-8535-8a5b19853f97, !- Tuesday Schedule:Day Name
  529c80a2-adcc-425c-9c7a-9e4ea92c5ad0, !- Wednesday Schedule:Day Name
  361a62d4-4483-44e2-8178-8ae958f5a9d6, !- Thursday Schedule:Day Name
  d39a0a2d-9745-449f-9744-d5c12fb151a7, !- Friday Schedule:Day Name
  eba83cb3-639c-4d5a-bba0-65026861de94, !- Saturday Schedule:Day Name
  8524b59a-4086-4eb9-a3a3-9c11016325d2, !- Holiday Schedule:Day Name
  8524b59a-4086-4eb9-a3a3-9c11016325d2, !- SummerDesignDay Schedule:Day Name
  8524b59a-4086-4eb9-a3a3-9c11016325d2, !- WinterDesignDay Schedule:Day Name
  8524b59a-4086-4eb9-a3a3-9c11016325d2, !- CustomDay1 Schedule:Day Name
  8524b59a-4086-4eb9-a3a3-9c11016325d2; !- CustomDay2 Schedule:Day Name

Schedule:Week:Daily, MechVentAvail_Zone_0_45,
  529897b0-7851-4804-9490-ac1e49f6673f, !- Sunday Schedule:Day Name
  6bf10be0-f6d1-42b2-b7f7-fee7ecca2194, !- Monday Schedule:Day Name
  8c1eacb8-60e0-437f-9c00-406e7754e0a1, !- Tuesday Schedule:Day Name
  ce02b5cd-0b87-43e5-8d81-d91c88fad177, !- Wednesday Schedule:Day Name
  45178cf4-77f9-40aa-a0a4-11b28ac7ef65, !- Thursday Schedule:Day Name
  4a8131e1-6b61-40b7-be8c-de09692f1780, !- Friday Schedule:Day Name
  529897b0-7851-4804-9490-ac1e49f6673f, !- Saturday Schedule:Day Name
  529897b0-7851-4804-9490-ac1e49f6673f, !- Holiday Schedule:Day Name
  529897b0-7851-4804-9490-ac1e49f6673f, !- SummerDesignDay Schedule:Day Name
  529897b0-7851-4804-9490-ac1e49f6673f, !- WinterDesignDay Schedule:Day Name
  529897b0-7851-4804-9490-ac1e49f6673f, !- CustomDay1 Schedule:Day Name
  529897b0-7851-4804-9490-ac1e49f6673f; !- CustomDay2 Schedule:Day Name

Schedule:Week:Daily, MechVentAvail_Zone_0_46,
  a92963a4-cdb5-4605-91ce-c7ecaa5e8ee2, !- Sunday Schedule:Day Name
  70fccbbf-0968-4144-81c4-213cfebb1410, !- Monday Schedule:Day Name
  60a5d225-296d-4afc-ad11-c7ede8f63fac, !- Tuesday Schedule:Day Name
  05a610c2-0fe3-448e-b41f-ef2fc4f267a0, !- Wednesday Schedule:Day Name
  741097d7-baff-4054-969c-272c18da0d28, !- Thursday Schedule:Day Name
  894fad8a-9db2-4cf0-9b25-e19f91a4054e, !- Friday Schedule:Day Name
  4e647661-89a2-4b39-a766-581725928f1c, !- Saturday Schedule:Day Name
  a92963a4-cdb5-4605-91ce-c7ecaa5e8ee2, !- Holiday Schedule:Day Name
  a92963a4-cdb5-4605-91ce-c7ecaa5e8ee2, !- SummerDesignDay Schedule:Day Name
  a92963a4-cdb5-4605-91ce-c7ecaa5e8ee2, !- WinterDesignDay Schedule:Day Name
  a92963a4-cdb5-4605-91ce-c7ecaa5e8ee2, !- CustomDay1 Schedule:Day Name
  a92963a4-cdb5-4605-91ce-c7ecaa5e8ee2; !- CustomDay2 Schedule:Day Name

Schedule:Week:Daily, MechVentAvail_Zone_0_47,
  4b6ed41e-87c7-4975-a053-4426fd22b8bb, !- Sunday Schedule:Day Name
  bd449fe4-415f-4b3c-8c99-a05e91d1a4a4, !- Monday Schedule:Day Name
  4c9fed97-f1c1-4f52-93cf-6e3ebb21d123, !- Tuesday Schedule:Day Name
  90e3bf91-1fac-41b0-8900-77a460dd330f, !- Wednesday Schedule:Day Name
  81f41662-e9ac-4eb1-b85d-5b27cc855202, !- Thursday Schedule:Day Name
  72c3588e-b2e9-4518-9183-511a012e489a, !- Friday Schedule:Day Name
  058802b1-c408-489d-8eb6-82654434e169, !- Saturday Schedule:Day Name
  4b6ed41e-87c7-4975-a053-4426fd22b8bb, !- Holiday Schedule:Day Name
  4b6ed41e-87c7-4975-a053-4426fd22b8bb, !- SummerDesignDay Schedule:Day Name
  4b6ed41e-87c7-4975-a053-4426fd22b8bb, !- WinterDesignDay Schedule:Day Name
  4b6ed41e-87c7-4975-a053-4426fd22b8bb, !- CustomDay1 Schedule:Day Name
  4b6ed41e-87c7-4975-a053-4426fd22b8bb; !- CustomDay2 Schedule:Day Name

Schedule:Week:Daily, MechVentAvail_Zone_0_48,
  c893bc1b-9ab6-4618-9526-c9d7948028e1, !- Sunday Schedule:Day Name
  2d3622f6-77fb-4f19-83ce-4f29eb6027ad, !- Monday Schedule:Day Name
  485f56f1-57ec-4dbc-a7b3-1c70517bfc66, !- Tuesday Schedule:Day Name
  f2aed9a4-388b-497b-9736-4f8f69007e10, !- Wednesday Schedule:Day Name
  3aec51c0-ffc0-4bed-9820-b9f1594e9715, !- Thursday Schedule:Day Name
  2b439630-06c0-43d1-b733-c1b6edee79ff, !- Friday Schedule:Day Name
  1354364f-3d47-441f-baaf-d91082a93f77, !- Saturday Schedule:Day Name
  c893bc1b-9ab6-4618-9526-c9d7948028e1, !- Holiday Schedule:Day Name
  c893bc1b-9ab6-4618-9526-c9d7948028e1, !- SummerDesignDay Schedule:Day Name
  c893bc1b-9ab6-4618-9526-c9d7948028e1, !- WinterDesignDay Schedule:Day Name
  c893bc1b-9ab6-4618-9526-c9d7948028e1, !- CustomDay1 Schedule:Day Name
  c893bc1b-9ab6-4618-9526-c9d7948028e1; !- CustomDay2 Schedule:Day Name

Schedule:Week:Daily, MechVentAvail_Zone_0_49,
  043a86aa-8b78-41f9-9b1e-acb706614a46, !- Sunday Schedule:Day Name
  6a1fb187-319f-4c84-bc8c-24fb97a2dfa3, !- Monday Schedule:Day Name
  a632ed9a-5de7-4d2a-9650-94074f019fd4, !- Tuesday Schedule:Day Name
  3b8062e7-37c0-42ef-9213-e2c9e8404624, !- Wednesday Schedule:Day Name
  3b07df94-8bae-425c-907d-ec27d7f912fc, !- Thursday Schedule:Day Name
  7be9cbd2-a441-4429-bd23-b447bb17e9a1, !- Friday Schedule:Day Name
  7c9938da-5bc3-4155-9f17-6dbf6999afb5, !- Saturday Schedule:Day Name
  043a86aa-8b78-41f9-9b1e-acb706614a46, !- Holiday Schedule:Day Name
  043a86aa-8b78-41f9-9b1e-acb706614a46, !- SummerDesignDay Schedule:Day Name
  043a86aa-8b78-41f9-9b1e-acb706614a46, !- WinterDesignDay Schedule:Day Name
  043a86aa-8b78-41f9-9b1e-acb706614a46, !- CustomDay1 Schedule:Day Name
  043a86aa-8b78-41f9-9b1e-acb706614a46; !- CustomDay2 Schedule:Day Name

Schedule:Week:Daily, MechVentAvail_Zone_0_50,
  149cf891-3990-4c32-920f-f7e48fb2aa7d, !- Sunday Schedule:Day Name
  c2976b59-a9d1-4ec2-afd8-5a25a852f813, !- Monday Schedule:Day Name
  f20793a5-f3a4-45ea-858c-464f45aebaeb, !- Tuesday Schedule:Day Name
  918cd881-32ed-44fa-84e1-0d95cc65e6a6, !- Wednesday Schedule:Day Name
  a7388b1d-e5d5-446e-9b3c-e9680b62e304, !- Thursday Schedule:Day Name
  48e2d8e6-c764-4309-9400-535a4b362951, !- Friday Schedule:Day Name
  b8feaf6b-9232-4fb5-8901-8b4871c860c7, !- Saturday Schedule:Day Name
  149cf891-3990-4c32-920f-f7e48fb2aa7d, !- Holiday Schedule:Day Name
  149cf891-3990-4c32-920f-f7e48fb2aa7d, !- SummerDesignDay Schedule:Day Name
  149cf891-3990-4c32-920f-f7e48fb2aa7d, !- WinterDesignDay Schedule:Day Name
  149cf891-3990-4c32-920f-f7e48fb2aa7d, !- CustomDay1 Schedule:Day Name
  149cf891-3990-4c32-920f-f7e48fb2aa7d; !- CustomDay2 Schedule:Day Name

Schedule:Week:Daily, MechVentAvail_Zone_0_51,
  485ce407-0896-49d2-8bdb-d863cf701a37, !- Sunday Schedule:Day Name
  77e688b3-1c47-4fa8-a150-bdfd9f7a6f05, !- Monday Schedule:Day Name
  ae164842-401a-4343-b31c-0fd7bb1224be, !- Tuesday Schedule:Day Name
  aca1a674-1583-4169-b70b-1a5a21e13e0d, !- Wednesday Schedule:Day Name
  71cadaa5-eb0e-4c82-bfb7-05770e92396e, !- Thursday Schedule:Day Name
  7fed7190-ed49-4405-b641-6bd42e090a6c, !- Friday Schedule:Day Name
  f8a50c2a-6260-4063-bcfb-7e7a4cbff610, !- Saturday Schedule:Day Name
  485ce407-0896-49d2-8bdb-d863cf701a37, !- Holiday Schedule:Day Name
  485ce407-0896-49d2-8bdb-d863cf701a37, !- SummerDesignDay Schedule:Day Name
  485ce407-0896-49d2-8bdb-d863cf701a37, !- WinterDesignDay Schedule:Day Name
  485ce407-0896-49d2-8bdb-d863cf701a37, !- CustomDay1 Schedule:Day Name
  485ce407-0896-49d2-8bdb-d863cf701a37; !- CustomDay2 Schedule:Day Name

Schedule:Week:Daily, MechVentAvail_Zone_0_52,
  cba0dbdb-88fe-4b2a-b0a5-debe7df2df22, !- Sunday Schedule:Day Name
  cba0dbdb-88fe-4b2a-b0a5-debe7df2df22, !- Monday Schedule:Day Name
  cba0dbdb-88fe-4b2a-b0a5-debe7df2df22, !- Tuesday Schedule:Day Name
  cba0dbdb-88fe-4b2a-b0a5-debe7df2df22, !- Wednesday Schedule:Day Name
  cba0dbdb-88fe-4b2a-b0a5-debe7df2df22, !- Thursday Schedule:Day Name
  cba0dbdb-88fe-4b2a-b0a5-debe7df2df22, !- Friday Schedule:Day Name
  cba0dbdb-88fe-4b2a-b0a5-debe7df2df22, !- Saturday Schedule:Day Name
  cba0dbdb-88fe-4b2a-b0a5-debe7df2df22, !- Holiday Schedule:Day Name
  cba0dbdb-88fe-4b2a-b0a5-debe7df2df22, !- SummerDesignDay Schedule:Day Name
  cba0dbdb-88fe-4b2a-b0a5-debe7df2df22, !- WinterDesignDay Schedule:Day Name
  cba0dbdb-88fe-4b2a-b0a5-debe7df2df22, !- CustomDay1 Schedule:Day Name
  cba0dbdb-88fe-4b2a-b0a5-debe7df2df22; !- CustomDay2 Schedule:Day Name


Schedule:Year,NatVentAvail_Zone_0,
Fraction,
NatVentAvail_Zone_0_0,1,1,1,7, 
NatVentAvail_Zone_0_1,1,8,1,14, 
NatVentAvail_Zone_0_2,1,15,1,21, 
NatVentAvail_Zone_0_3,1,22,1,28, 
NatVentAvail_Zone_0_4,1,29,2,4, 
NatVentAvail_Zone_0_5,2,5,2,11, 
NatVentAvail_Zone_0_6,2,12,2,18, 
NatVentAvail_Zone_0_7,2,19,2,25, 
NatVentAvail_Zone_0_8,2,26,3,4, 
NatVentAvail_Zone_0_9,3,5,3,11, 
NatVentAvail_Zone_0_10,3,12,3,18, 
NatVentAvail_Zone_0_11,3,19,3,25, 
NatVentAvail_Zone_0_12,3,26,4,1, 
NatVentAvail_Zone_0_13,4,2,4,8, 
NatVentAvail_Zone_0_14,4,9,4,15, 
NatVentAvail_Zone_0_15,4,16,4,22, 
NatVentAvail_Zone_0_16,4,23,4,29, 
NatVentAvail_Zone_0_17,4,30,5,6, 
NatVentAvail_Zone_0_18,5,7,5,13, 
NatVentAvail_Zone_0_19,5,14,5,20, 
NatVentAvail_Zone_0_20,5,21,5,27, 
NatVentAvail_Zone_0_21,5,28,6,3, 
NatVentAvail_Zone_0_22,6,4,6,10, 
NatVentAvail_Zone_0_23,6,11,6,17, 
NatVentAvail_Zone_0_24,6,18,6,24, 
NatVentAvail_Zone_0_25,6,25,7,1, 
NatVentAvail_Zone_0_26,7,2,7,8, 
NatVentAvail_Zone_0_27,7,9,7,15, 
NatVentAvail_Zone_0_28,7,16,7,22, 
NatVentAvail_Zone_0_29,7,23,7,29, 
NatVentAvail_Zone_0_30,7,30,8,5, 
NatVentAvail_Zone_0_31,8,6,8,12, 
NatVentAvail_Zone_0_32,8,13,8,19, 
NatVentAvail_Zone_0_33,8,20,8,26, 
NatVentAvail_Zone_0_34,8,27,9,2, 
NatVentAvail_Zone_0_35,9,3,9,9, 
NatVentAvail_Zone_0_36,9,10,9,16, 
NatVentAvail_Zone_0_37,9,17,9,23, 
NatVentAvail_Zone_0_38,9,24,9,30, 
NatVentAvail_Zone_0_39,10,1,10,7, 
NatVentAvail_Zone_0_40,10,8,10,14, 
NatVentAvail_Zone_0_41,10,15,10,21, 
NatVentAvail_Zone_0_42,10,22,10,28, 
NatVentAvail_Zone_0_43,10,29,11,4, 
NatVentAvail_Zone_0_44,11,5,11,11, 
NatVentAvail_Zone_0_45,11,12,11,18, 
NatVentAvail_Zone_0_46,11,19,11,25, 
NatVentAvail_Zone_0_47,11,26,12,2, 
NatVentAvail_Zone_0_48,12,3,12,9, 
NatVentAvail_Zone_0_49,12,10,12,16, 
NatVentAvail_Zone_0_50,12,17,12,23, 
NatVentAvail_Zone_0_51,12,24,12,30, 
NatVentAvail_Zone_0_52,12,31,12,31;

Schedule:Week:Daily, NatVentAvail_Zone_0_0,
  85069bca-2b2a-471b-b3fa-43c3efb318f0, !- Sunday Schedule:Day Name
  06d6f6e1-af1c-480b-b630-ce5e81cdfe58, !- Monday Schedule:Day Name
  2b032a04-6ee1-4acb-ba70-2f655d9db630, !- Tuesday Schedule:Day Name
  ed4bfe94-cad4-40e5-a25a-afe5402feeae, !- Wednesday Schedule:Day Name
  c5cacbf8-b7d6-47b0-a14d-5407c4417e75, !- Thursday Schedule:Day Name
  615a7867-e14e-4151-aabf-fa796bd84dec, !- Friday Schedule:Day Name
  3d6da4ae-3ce6-406d-b521-e5cf70f2aa7e, !- Saturday Schedule:Day Name
  85069bca-2b2a-471b-b3fa-43c3efb318f0, !- Holiday Schedule:Day Name
  85069bca-2b2a-471b-b3fa-43c3efb318f0, !- SummerDesignDay Schedule:Day Name
  85069bca-2b2a-471b-b3fa-43c3efb318f0, !- WinterDesignDay Schedule:Day Name
  85069bca-2b2a-471b-b3fa-43c3efb318f0, !- CustomDay1 Schedule:Day Name
  85069bca-2b2a-471b-b3fa-43c3efb318f0; !- CustomDay2 Schedule:Day Name

Schedule:Week:Daily, NatVentAvail_Zone_0_1,
  ac9fad2d-3e51-4f97-881e-d2450c51413b, !- Sunday Schedule:Day Name
  0e42cded-2a11-4a29-a65f-22a311d3abbb, !- Monday Schedule:Day Name
  f20a0d7c-3566-4be1-8587-853c079a1db2, !- Tuesday Schedule:Day Name
  595ff375-4059-4e85-8b06-aa3341602a60, !- Wednesday Schedule:Day Name
  b356c6f9-b694-4ecb-8aa4-38cc8c6398e2, !- Thursday Schedule:Day Name
  e37bf46d-5aef-4994-a8a7-7644741c72a3, !- Friday Schedule:Day Name
  2269cefc-a935-47c3-b3e2-530841a6b154, !- Saturday Schedule:Day Name
  ac9fad2d-3e51-4f97-881e-d2450c51413b, !- Holiday Schedule:Day Name
  ac9fad2d-3e51-4f97-881e-d2450c51413b, !- SummerDesignDay Schedule:Day Name
  ac9fad2d-3e51-4f97-881e-d2450c51413b, !- WinterDesignDay Schedule:Day Name
  ac9fad2d-3e51-4f97-881e-d2450c51413b, !- CustomDay1 Schedule:Day Name
  ac9fad2d-3e51-4f97-881e-d2450c51413b; !- CustomDay2 Schedule:Day Name

Schedule:Week:Daily, NatVentAvail_Zone_0_2,
  79023da8-e6db-4f2f-8f41-2054c17e2bca, !- Sunday Schedule:Day Name
  86a01146-cf8e-48c7-b303-e0bceb998122, !- Monday Schedule:Day Name
  b356c6f9-b694-4ecb-8aa4-38cc8c6398e2, !- Tuesday Schedule:Day Name
  c9bb4b23-ce24-49e5-8961-dddd9e0eb11a, !- Wednesday Schedule:Day Name
  06d6f6e1-af1c-480b-b630-ce5e81cdfe58, !- Thursday Schedule:Day Name
  1465d87e-c0b2-4898-9858-07a856ce352f, !- Friday Schedule:Day Name
  b21dc415-d331-4ffb-82a4-4013a69e96be, !- Saturday Schedule:Day Name
  79023da8-e6db-4f2f-8f41-2054c17e2bca, !- Holiday Schedule:Day Name
  79023da8-e6db-4f2f-8f41-2054c17e2bca, !- SummerDesignDay Schedule:Day Name
  79023da8-e6db-4f2f-8f41-2054c17e2bca, !- WinterDesignDay Schedule:Day Name
  79023da8-e6db-4f2f-8f41-2054c17e2bca, !- CustomDay1 Schedule:Day Name
  79023da8-e6db-4f2f-8f41-2054c17e2bca; !- CustomDay2 Schedule:Day Name

Schedule:Week:Daily, NatVentAvail_Zone_0_3,
  6e080233-e4cb-4c47-b1e8-7ec84ea5e545, !- Sunday Schedule:Day Name
  d2be773e-9853-48d9-b5f6-a2d711cee537, !- Monday Schedule:Day Name
  c3e05625-c80f-4c81-a4a9-1e7a529037f4, !- Tuesday Schedule:Day Name
  95084d81-6bf5-4aa3-9d4a-d76fe797a3a0, !- Wednesday Schedule:Day Name
  cc1c95d3-11ec-4856-b087-326376f9f1df, !- Thursday Schedule:Day Name
  85069bca-2b2a-471b-b3fa-43c3efb318f0, !- Friday Schedule:Day Name
  66983e29-3603-4296-9e5f-13a50f55c452, !- Saturday Schedule:Day Name
  6e080233-e4cb-4c47-b1e8-7ec84ea5e545, !- Holiday Schedule:Day Name
  6e080233-e4cb-4c47-b1e8-7ec84ea5e545, !- SummerDesignDay Schedule:Day Name
  6e080233-e4cb-4c47-b1e8-7ec84ea5e545, !- WinterDesignDay Schedule:Day Name
  6e080233-e4cb-4c47-b1e8-7ec84ea5e545, !- CustomDay1 Schedule:Day Name
  6e080233-e4cb-4c47-b1e8-7ec84ea5e545; !- CustomDay2 Schedule:Day Name

Schedule:Week:Daily, NatVentAvail_Zone_0_4,
  7f8fd417-c1ec-4504-8790-f7a53b8eea8a, !- Sunday Schedule:Day Name
  42a6307f-b2ff-49e0-a00d-c5f437ec8d24, !- Monday Schedule:Day Name
  9cd492d8-3f3b-46f3-8701-69e275a9b161, !- Tuesday Schedule:Day Name
  eec8c49c-47b8-4e6c-8f13-8fbe0dfba465, !- Wednesday Schedule:Day Name
  c95229db-74a2-4849-b964-e93d90943bb4, !- Thursday Schedule:Day Name
  c949a31b-6cec-4c42-8e33-a178b78093b6, !- Friday Schedule:Day Name
  42a6307f-b2ff-49e0-a00d-c5f437ec8d24, !- Saturday Schedule:Day Name
  7f8fd417-c1ec-4504-8790-f7a53b8eea8a, !- Holiday Schedule:Day Name
  7f8fd417-c1ec-4504-8790-f7a53b8eea8a, !- SummerDesignDay Schedule:Day Name
  7f8fd417-c1ec-4504-8790-f7a53b8eea8a, !- WinterDesignDay Schedule:Day Name
  7f8fd417-c1ec-4504-8790-f7a53b8eea8a, !- CustomDay1 Schedule:Day Name
  7f8fd417-c1ec-4504-8790-f7a53b8eea8a; !- CustomDay2 Schedule:Day Name

Schedule:Week:Daily, NatVentAvail_Zone_0_5,
  3abdae18-6f5f-42a6-92ec-5e8bafdd7ec6, !- Sunday Schedule:Day Name
  1392b2eb-0a18-40c2-8618-893a8af9810c, !- Monday Schedule:Day Name
  2654707f-1dea-43a9-b014-0dc0dc09ceff, !- Tuesday Schedule:Day Name
  a28dc146-cde9-4dc3-bdc8-c9385b19801b, !- Wednesday Schedule:Day Name
  2f2aca47-6253-49b2-b302-f17a1cf2c10d, !- Thursday Schedule:Day Name
  57228267-8ffc-4b08-800f-1df83d28b00b, !- Friday Schedule:Day Name
  0176805f-6419-410f-ba74-85dd6959e1f7, !- Saturday Schedule:Day Name
  3abdae18-6f5f-42a6-92ec-5e8bafdd7ec6, !- Holiday Schedule:Day Name
  3abdae18-6f5f-42a6-92ec-5e8bafdd7ec6, !- SummerDesignDay Schedule:Day Name
  3abdae18-6f5f-42a6-92ec-5e8bafdd7ec6, !- WinterDesignDay Schedule:Day Name
  3abdae18-6f5f-42a6-92ec-5e8bafdd7ec6, !- CustomDay1 Schedule:Day Name
  3abdae18-6f5f-42a6-92ec-5e8bafdd7ec6; !- CustomDay2 Schedule:Day Name

Schedule:Week:Daily, NatVentAvail_Zone_0_6,
  93420359-c8f8-4532-a5dc-db31faf1d0e0, !- Sunday Schedule:Day Name
  0842cef2-874f-47ca-bd6f-c995717f89f5, !- Monday Schedule:Day Name
  527f4506-5e2d-4351-8612-1769222680b5, !- Tuesday Schedule:Day Name
  937d2ddf-9db7-4f99-bbca-8ced9319c7cb, !- Wednesday Schedule:Day Name
  3eff230f-72b4-477a-8f53-7b16b1284d89, !- Thursday Schedule:Day Name
  976638ae-f183-43cc-bf01-ed478fa5cdf8, !- Friday Schedule:Day Name
  99ac96b2-0dbf-4191-92f5-f2c379e587cc, !- Saturday Schedule:Day Name
  93420359-c8f8-4532-a5dc-db31faf1d0e0, !- Holiday Schedule:Day Name
  93420359-c8f8-4532-a5dc-db31faf1d0e0, !- SummerDesignDay Schedule:Day Name
  93420359-c8f8-4532-a5dc-db31faf1d0e0, !- WinterDesignDay Schedule:Day Name
  93420359-c8f8-4532-a5dc-db31faf1d0e0, !- CustomDay1 Schedule:Day Name
  93420359-c8f8-4532-a5dc-db31faf1d0e0; !- CustomDay2 Schedule:Day Name

Schedule:Week:Daily, NatVentAvail_Zone_0_7,
  77809503-9f90-46be-adc1-3663f947b689, !- Sunday Schedule:Day Name
  ce14c8f3-be08-4051-a924-ca6858ed1a24, !- Monday Schedule:Day Name
  c3c36dcf-4c1d-4c8b-8534-42c2ad4c5ad8, !- Tuesday Schedule:Day Name
  982cbe55-da32-4f35-a18e-aeaafc8cb0b3, !- Wednesday Schedule:Day Name
  91c0d1b7-a7b0-4b30-929c-a76e3245cede, !- Thursday Schedule:Day Name
  0c932124-0cd9-45d6-8757-43597c289681, !- Friday Schedule:Day Name
  56f29499-99d1-4e36-84d6-6341f5db69f4, !- Saturday Schedule:Day Name
  77809503-9f90-46be-adc1-3663f947b689, !- Holiday Schedule:Day Name
  77809503-9f90-46be-adc1-3663f947b689, !- SummerDesignDay Schedule:Day Name
  77809503-9f90-46be-adc1-3663f947b689, !- WinterDesignDay Schedule:Day Name
  77809503-9f90-46be-adc1-3663f947b689, !- CustomDay1 Schedule:Day Name
  77809503-9f90-46be-adc1-3663f947b689; !- CustomDay2 Schedule:Day Name

Schedule:Week:Daily, NatVentAvail_Zone_0_8,
  9275d2fc-2a43-4701-a9da-08a2d8185c06, !- Sunday Schedule:Day Name
  c0c54f6c-8884-442c-b002-f8cc31b18a9f, !- Monday Schedule:Day Name
  9e714302-3d54-4d24-9e56-1853b4432ed5, !- Tuesday Schedule:Day Name
  e78f57e5-5213-49bf-8813-5a9fda860091, !- Wednesday Schedule:Day Name
  54ef1873-ddc2-42a3-83f3-e0a4f7cf0801, !- Thursday Schedule:Day Name
  b08f153b-0886-4b1c-93e8-8174a0079cec, !- Friday Schedule:Day Name
  dc30819b-fcc9-4b43-8982-057702bd865d, !- Saturday Schedule:Day Name
  9275d2fc-2a43-4701-a9da-08a2d8185c06, !- Holiday Schedule:Day Name
  9275d2fc-2a43-4701-a9da-08a2d8185c06, !- SummerDesignDay Schedule:Day Name
  9275d2fc-2a43-4701-a9da-08a2d8185c06, !- WinterDesignDay Schedule:Day Name
  9275d2fc-2a43-4701-a9da-08a2d8185c06, !- CustomDay1 Schedule:Day Name
  9275d2fc-2a43-4701-a9da-08a2d8185c06; !- CustomDay2 Schedule:Day Name

Schedule:Week:Daily, NatVentAvail_Zone_0_9,
  4fc32eac-1523-48f7-9e49-02675d249cb1, !- Sunday Schedule:Day Name
  f25784c1-35a1-4028-8149-79a5432f8fe1, !- Monday Schedule:Day Name
  dc30819b-fcc9-4b43-8982-057702bd865d, !- Tuesday Schedule:Day Name
  e7084eab-6503-4b63-b52b-776db332174c, !- Wednesday Schedule:Day Name
  acd2ed40-f335-4859-b2df-d57ecf0e064a, !- Thursday Schedule:Day Name
  9465b060-c919-45c3-858f-17b0ec2e0545, !- Friday Schedule:Day Name
  613a1e73-45c6-4df7-84ed-0874f544414c, !- Saturday Schedule:Day Name
  4fc32eac-1523-48f7-9e49-02675d249cb1, !- Holiday Schedule:Day Name
  4fc32eac-1523-48f7-9e49-02675d249cb1, !- SummerDesignDay Schedule:Day Name
  4fc32eac-1523-48f7-9e49-02675d249cb1, !- WinterDesignDay Schedule:Day Name
  4fc32eac-1523-48f7-9e49-02675d249cb1, !- CustomDay1 Schedule:Day Name
  4fc32eac-1523-48f7-9e49-02675d249cb1; !- CustomDay2 Schedule:Day Name

Schedule:Week:Daily, NatVentAvail_Zone_0_10,
  05e90752-b7f7-43f5-a404-2e3dee32d087, !- Sunday Schedule:Day Name
  dc30819b-fcc9-4b43-8982-057702bd865d, !- Monday Schedule:Day Name
  340cdbea-2824-44fc-aa5e-01a0ed359164, !- Tuesday Schedule:Day Name
  14d82741-dd99-4ee7-a949-93d752d18689, !- Wednesday Schedule:Day Name
  e9658675-d006-4883-9820-77fd4ba4bfd3, !- Thursday Schedule:Day Name
  a90c3863-74fb-4494-b0c1-6de60f0dda75, !- Friday Schedule:Day Name
  43e5c19a-6635-4ddc-b958-82927168ffbe, !- Saturday Schedule:Day Name
  05e90752-b7f7-43f5-a404-2e3dee32d087, !- Holiday Schedule:Day Name
  05e90752-b7f7-43f5-a404-2e3dee32d087, !- SummerDesignDay Schedule:Day Name
  05e90752-b7f7-43f5-a404-2e3dee32d087, !- WinterDesignDay Schedule:Day Name
  05e90752-b7f7-43f5-a404-2e3dee32d087, !- CustomDay1 Schedule:Day Name
  05e90752-b7f7-43f5-a404-2e3dee32d087; !- CustomDay2 Schedule:Day Name

Schedule:Week:Daily, NatVentAvail_Zone_0_11,
  dc30819b-fcc9-4b43-8982-057702bd865d, !- Sunday Schedule:Day Name
  c5b01f2a-dc6e-4e73-98f0-87f70ce5c191, !- Monday Schedule:Day Name
  c73acd8c-245c-4ba4-82a2-e6153a57d641, !- Tuesday Schedule:Day Name
  2d56a03a-6ee9-4429-b497-c3ddc531cf71, !- Wednesday Schedule:Day Name
  2b6ff624-4e04-487d-ba37-6376db315ba4, !- Thursday Schedule:Day Name
  c5b66f65-a8a7-4a61-8ad5-03644a81dd28, !- Friday Schedule:Day Name
  57406b55-9aef-4c72-bc90-91d1cece7929, !- Saturday Schedule:Day Name
  dc30819b-fcc9-4b43-8982-057702bd865d, !- Holiday Schedule:Day Name
  dc30819b-fcc9-4b43-8982-057702bd865d, !- SummerDesignDay Schedule:Day Name
  dc30819b-fcc9-4b43-8982-057702bd865d, !- WinterDesignDay Schedule:Day Name
  dc30819b-fcc9-4b43-8982-057702bd865d, !- CustomDay1 Schedule:Day Name
  dc30819b-fcc9-4b43-8982-057702bd865d; !- CustomDay2 Schedule:Day Name

Schedule:Week:Daily, NatVentAvail_Zone_0_12,
  c9527523-fef4-4b1e-9705-31c0563051fe, !- Sunday Schedule:Day Name
  7f82e1f8-3fed-4702-a01f-abdc2c21d09c, !- Monday Schedule:Day Name
  23db8ac4-31b8-41ca-a944-c16b2572a681, !- Tuesday Schedule:Day Name
  05477049-26bb-4628-a72a-4d24176d04a6, !- Wednesday Schedule:Day Name
  77c9a84c-1430-4ab8-8f1e-8a387c7d56d2, !- Thursday Schedule:Day Name
  5a2f310b-07bd-4f80-bd24-22e85727ea75, !- Friday Schedule:Day Name
  2dc62eb3-2c00-407d-a366-cf717eb8ce7d, !- Saturday Schedule:Day Name
  c9527523-fef4-4b1e-9705-31c0563051fe, !- Holiday Schedule:Day Name
  c9527523-fef4-4b1e-9705-31c0563051fe, !- SummerDesignDay Schedule:Day Name
  c9527523-fef4-4b1e-9705-31c0563051fe, !- WinterDesignDay Schedule:Day Name
  c9527523-fef4-4b1e-9705-31c0563051fe, !- CustomDay1 Schedule:Day Name
  c9527523-fef4-4b1e-9705-31c0563051fe; !- CustomDay2 Schedule:Day Name

Schedule:Week:Daily, NatVentAvail_Zone_0_13,
  b2a8f0f1-d429-4ed2-b784-a1467a817b23, !- Sunday Schedule:Day Name
  c0c2b50c-5233-4238-b21e-6150e2c90a9a, !- Monday Schedule:Day Name
  c87bc41b-7e52-4ec9-81ab-28f4333f17e2, !- Tuesday Schedule:Day Name
  25ce19ca-b763-49e3-9827-20dcf254a0ef, !- Wednesday Schedule:Day Name
  025d20a4-038b-4ae7-9002-e7f97060efc2, !- Thursday Schedule:Day Name
  501f1c5f-22ae-414d-a58f-1be396d8b788, !- Friday Schedule:Day Name
  037de2d9-01a1-46c2-a948-6b00ae712a92, !- Saturday Schedule:Day Name
  b2a8f0f1-d429-4ed2-b784-a1467a817b23, !- Holiday Schedule:Day Name
  b2a8f0f1-d429-4ed2-b784-a1467a817b23, !- SummerDesignDay Schedule:Day Name
  b2a8f0f1-d429-4ed2-b784-a1467a817b23, !- WinterDesignDay Schedule:Day Name
  b2a8f0f1-d429-4ed2-b784-a1467a817b23, !- CustomDay1 Schedule:Day Name
  b2a8f0f1-d429-4ed2-b784-a1467a817b23; !- CustomDay2 Schedule:Day Name

Schedule:Week:Daily, NatVentAvail_Zone_0_14,
  078e48d2-2d10-49f0-95fc-c90716d5cf71, !- Sunday Schedule:Day Name
  a4f29cf0-3812-4ff5-9787-1b356ed1f8c3, !- Monday Schedule:Day Name
  d1b1c39d-20fc-4a14-a5d4-085977df3e60, !- Tuesday Schedule:Day Name
  7ff908e8-e2ad-4495-afbe-b1f3907aa5da, !- Wednesday Schedule:Day Name
  05ec2185-96a1-4de5-b3b1-93c4c1529b2e, !- Thursday Schedule:Day Name
  7e0bb731-e4ef-4638-b5fb-2614602492ce, !- Friday Schedule:Day Name
  12842f21-d8bc-465c-9350-f873b5a8fd40, !- Saturday Schedule:Day Name
  078e48d2-2d10-49f0-95fc-c90716d5cf71, !- Holiday Schedule:Day Name
  078e48d2-2d10-49f0-95fc-c90716d5cf71, !- SummerDesignDay Schedule:Day Name
  078e48d2-2d10-49f0-95fc-c90716d5cf71, !- WinterDesignDay Schedule:Day Name
  078e48d2-2d10-49f0-95fc-c90716d5cf71, !- CustomDay1 Schedule:Day Name
  078e48d2-2d10-49f0-95fc-c90716d5cf71; !- CustomDay2 Schedule:Day Name

Schedule:Week:Daily, NatVentAvail_Zone_0_15,
  eda7dc8c-19fe-4e05-a6d5-0b6cda74fbbf, !- Sunday Schedule:Day Name
  2ed55e3b-1a74-47b5-b6dd-f2b7a28fc220, !- Monday Schedule:Day Name
  53c517d1-15a5-479a-8045-bae384e9339c, !- Tuesday Schedule:Day Name
  f20793a5-f3a4-45ea-858c-464f45aebaeb, !- Wednesday Schedule:Day Name
  6d42e586-eba7-4e05-a397-1bac1b942902, !- Thursday Schedule:Day Name
  c7e53773-1c2d-497f-8d27-9f36e02b9a7d, !- Friday Schedule:Day Name
  bad9f38d-d56c-4af6-a464-ccc616e36a8d, !- Saturday Schedule:Day Name
  eda7dc8c-19fe-4e05-a6d5-0b6cda74fbbf, !- Holiday Schedule:Day Name
  eda7dc8c-19fe-4e05-a6d5-0b6cda74fbbf, !- SummerDesignDay Schedule:Day Name
  eda7dc8c-19fe-4e05-a6d5-0b6cda74fbbf, !- WinterDesignDay Schedule:Day Name
  eda7dc8c-19fe-4e05-a6d5-0b6cda74fbbf, !- CustomDay1 Schedule:Day Name
  eda7dc8c-19fe-4e05-a6d5-0b6cda74fbbf; !- CustomDay2 Schedule:Day Name

Schedule:Week:Daily, NatVentAvail_Zone_0_16,
  1dc6dc5f-b99f-4263-bb0e-adfe20f3dded, !- Sunday Schedule:Day Name
  c95d8c5a-cca6-4044-8a47-3da717f82028, !- Monday Schedule:Day Name
  f1e85903-cc13-4b8d-bdde-1ca47628815a, !- Tuesday Schedule:Day Name
  256b33e3-552b-4680-9b0a-870d930f7e93, !- Wednesday Schedule:Day Name
  ccff3a5c-ce33-4d74-a50a-1b0fb784204a, !- Thursday Schedule:Day Name
  449c2a01-7984-47dc-9975-6d2b733a4a4e, !- Friday Schedule:Day Name
  b28fc5c0-6a02-411f-aa29-2545ab5c1693, !- Saturday Schedule:Day Name
  1dc6dc5f-b99f-4263-bb0e-adfe20f3dded, !- Holiday Schedule:Day Name
  1dc6dc5f-b99f-4263-bb0e-adfe20f3dded, !- SummerDesignDay Schedule:Day Name
  1dc6dc5f-b99f-4263-bb0e-adfe20f3dded, !- WinterDesignDay Schedule:Day Name
  1dc6dc5f-b99f-4263-bb0e-adfe20f3dded, !- CustomDay1 Schedule:Day Name
  1dc6dc5f-b99f-4263-bb0e-adfe20f3dded; !- CustomDay2 Schedule:Day Name

Schedule:Week:Daily, NatVentAvail_Zone_0_17,
  58f1c357-9c3a-49b1-9715-5360cfdaedc1, !- Sunday Schedule:Day Name
  2b06c360-d777-433b-aea6-c226b915c1a8, !- Monday Schedule:Day Name
  71aa1198-f18a-4e8e-88c7-33212764596a, !- Tuesday Schedule:Day Name
  d2731bbd-4a9e-4cae-989e-577b03c272ed, !- Wednesday Schedule:Day Name
  2fa06de4-b10c-4096-b117-f4e2764d98b9, !- Thursday Schedule:Day Name
  5b3558f8-e899-445e-8bbb-81da23c0ad8e, !- Friday Schedule:Day Name
  82741c91-4db3-45cb-a7f7-b97c9e49b532, !- Saturday Schedule:Day Name
  58f1c357-9c3a-49b1-9715-5360cfdaedc1, !- Holiday Schedule:Day Name
  58f1c357-9c3a-49b1-9715-5360cfdaedc1, !- SummerDesignDay Schedule:Day Name
  58f1c357-9c3a-49b1-9715-5360cfdaedc1, !- WinterDesignDay Schedule:Day Name
  58f1c357-9c3a-49b1-9715-5360cfdaedc1, !- CustomDay1 Schedule:Day Name
  58f1c357-9c3a-49b1-9715-5360cfdaedc1; !- CustomDay2 Schedule:Day Name

Schedule:Week:Daily, NatVentAvail_Zone_0_18,
  0a19ce5b-b12e-4763-837b-a981e4365968, !- Sunday Schedule:Day Name
  f2d8b086-bef9-4ee2-a225-c1024e742e3c, !- Monday Schedule:Day Name
  5e6b9d1c-d3b6-4a67-ab56-227b5dad1548, !- Tuesday Schedule:Day Name
  0a19ce5b-b12e-4763-837b-a981e4365968, !- Wednesday Schedule:Day Name
  e0159807-63be-4ce4-8559-2d154de80daa, !- Thursday Schedule:Day Name
  7fcc53a5-d932-4ade-ab32-b6203e811e42, !- Friday Schedule:Day Name
  39ec39b2-4e5d-4aec-b9f7-14c75821dc19, !- Saturday Schedule:Day Name
  0a19ce5b-b12e-4763-837b-a981e4365968, !- Holiday Schedule:Day Name
  0a19ce5b-b12e-4763-837b-a981e4365968, !- SummerDesignDay Schedule:Day Name
  0a19ce5b-b12e-4763-837b-a981e4365968, !- WinterDesignDay Schedule:Day Name
  0a19ce5b-b12e-4763-837b-a981e4365968, !- CustomDay1 Schedule:Day Name
  0a19ce5b-b12e-4763-837b-a981e4365968; !- CustomDay2 Schedule:Day Name

Schedule:Week:Daily, NatVentAvail_Zone_0_19,
  04dd5f81-d687-4d05-b9b2-987389408bd4, !- Sunday Schedule:Day Name
  4284daa1-9f3b-4eb3-9ace-481321d978d7, !- Monday Schedule:Day Name
  cec2c09e-ea7a-4e97-b82b-e2a1278e73c9, !- Tuesday Schedule:Day Name
  2504830d-d145-4b8f-a04a-656c2a6152eb, !- Wednesday Schedule:Day Name
  172d5b6c-8353-4458-86ea-2c24105b43be, !- Thursday Schedule:Day Name
  f8bf2802-854b-4daf-9b48-506049b3ab1c, !- Friday Schedule:Day Name
  e6efed90-1a70-4210-9203-60dd9ac8e579, !- Saturday Schedule:Day Name
  04dd5f81-d687-4d05-b9b2-987389408bd4, !- Holiday Schedule:Day Name
  04dd5f81-d687-4d05-b9b2-987389408bd4, !- SummerDesignDay Schedule:Day Name
  04dd5f81-d687-4d05-b9b2-987389408bd4, !- WinterDesignDay Schedule:Day Name
  04dd5f81-d687-4d05-b9b2-987389408bd4, !- CustomDay1 Schedule:Day Name
  04dd5f81-d687-4d05-b9b2-987389408bd4; !- CustomDay2 Schedule:Day Name

Schedule:Week:Daily, NatVentAvail_Zone_0_20,
  3530dd22-4532-4c48-8a81-7935208ecb90, !- Sunday Schedule:Day Name
  9e3955d3-bf00-47d6-b96d-28d39e1624fa, !- Monday Schedule:Day Name
  04dd5f81-d687-4d05-b9b2-987389408bd4, !- Tuesday Schedule:Day Name
  a4b4137f-fc6c-43c9-8bc7-f9311de807df, !- Wednesday Schedule:Day Name
  88cbe414-93f5-4bee-b917-2b14a1f7763e, !- Thursday Schedule:Day Name
  16afa7d7-94ac-47fe-9b70-90851e1ce147, !- Friday Schedule:Day Name
  e392f12c-9b5e-42b1-a436-6e8c72e9a420, !- Saturday Schedule:Day Name
  3530dd22-4532-4c48-8a81-7935208ecb90, !- Holiday Schedule:Day Name
  3530dd22-4532-4c48-8a81-7935208ecb90, !- SummerDesignDay Schedule:Day Name
  3530dd22-4532-4c48-8a81-7935208ecb90, !- WinterDesignDay Schedule:Day Name
  3530dd22-4532-4c48-8a81-7935208ecb90, !- CustomDay1 Schedule:Day Name
  3530dd22-4532-4c48-8a81-7935208ecb90; !- CustomDay2 Schedule:Day Name

Schedule:Week:Daily, NatVentAvail_Zone_0_21,
  eb496d9f-7b03-42c8-b2b5-9388d680626d, !- Sunday Schedule:Day Name
  1392b2eb-0a18-40c2-8618-893a8af9810c, !- Monday Schedule:Day Name
  a2639fa5-a44c-425f-928f-fbfd54647de3, !- Tuesday Schedule:Day Name
  fb266e95-20a3-4bcf-bbe1-b2c024e0e2b5, !- Wednesday Schedule:Day Name
  e842b1ed-882e-40c6-89eb-e7ada1740904, !- Thursday Schedule:Day Name
  5e21c027-ff49-4f85-9e0c-380d8adc4031, !- Friday Schedule:Day Name
  8bb07672-a97f-4b36-a8ae-b5ca71a5752e, !- Saturday Schedule:Day Name
  eb496d9f-7b03-42c8-b2b5-9388d680626d, !- Holiday Schedule:Day Name
  eb496d9f-7b03-42c8-b2b5-9388d680626d, !- SummerDesignDay Schedule:Day Name
  eb496d9f-7b03-42c8-b2b5-9388d680626d, !- WinterDesignDay Schedule:Day Name
  eb496d9f-7b03-42c8-b2b5-9388d680626d, !- CustomDay1 Schedule:Day Name
  eb496d9f-7b03-42c8-b2b5-9388d680626d; !- CustomDay2 Schedule:Day Name

Schedule:Week:Daily, NatVentAvail_Zone_0_22,
  741097d7-baff-4054-969c-272c18da0d28, !- Sunday Schedule:Day Name
  f3217fa1-f4f1-456e-9388-868d0ba5f6a4, !- Monday Schedule:Day Name
  7d1175f0-7de8-4739-ba34-b31eefa34c3b, !- Tuesday Schedule:Day Name
  9fd23dfb-d7b6-4ddd-b35c-909e3cd5adb0, !- Wednesday Schedule:Day Name
  9c871d66-a670-4db2-ae81-92009fc3d116, !- Thursday Schedule:Day Name
  a92963a4-cdb5-4605-91ce-c7ecaa5e8ee2, !- Friday Schedule:Day Name
  1d77efd4-25ae-47c1-adf6-4d311e70798c, !- Saturday Schedule:Day Name
  741097d7-baff-4054-969c-272c18da0d28, !- Holiday Schedule:Day Name
  741097d7-baff-4054-969c-272c18da0d28, !- SummerDesignDay Schedule:Day Name
  741097d7-baff-4054-969c-272c18da0d28, !- WinterDesignDay Schedule:Day Name
  741097d7-baff-4054-969c-272c18da0d28, !- CustomDay1 Schedule:Day Name
  741097d7-baff-4054-969c-272c18da0d28; !- CustomDay2 Schedule:Day Name

Schedule:Week:Daily, NatVentAvail_Zone_0_23,
  a1fc079c-703f-4d73-8040-82d353c810a1, !- Sunday Schedule:Day Name
  89d3ed37-aa9c-467b-a228-9f02c00f5242, !- Monday Schedule:Day Name
  ab2ac5eb-e2ff-46dd-a5cc-12c3b0c2eb95, !- Tuesday Schedule:Day Name
  384d51e8-ff4e-4925-9847-674f6f0f1032, !- Wednesday Schedule:Day Name
  a05d72da-caf3-4e76-892a-c2c2f2ca984e, !- Thursday Schedule:Day Name
  391ac6b8-3f26-4351-becd-bae6922c1028, !- Friday Schedule:Day Name
  c75720f4-910b-4b9d-9911-97a795e95b61, !- Saturday Schedule:Day Name
  a1fc079c-703f-4d73-8040-82d353c810a1, !- Holiday Schedule:Day Name
  a1fc079c-703f-4d73-8040-82d353c810a1, !- SummerDesignDay Schedule:Day Name
  a1fc079c-703f-4d73-8040-82d353c810a1, !- WinterDesignDay Schedule:Day Name
  a1fc079c-703f-4d73-8040-82d353c810a1, !- CustomDay1 Schedule:Day Name
  a1fc079c-703f-4d73-8040-82d353c810a1; !- CustomDay2 Schedule:Day Name

Schedule:Week:Daily, NatVentAvail_Zone_0_24,
  1224162e-fc56-409b-8ae1-2d7516406fd8, !- Sunday Schedule:Day Name
  6e34102d-1314-4ba4-811d-e85e3a57b682, !- Monday Schedule:Day Name
  b77f4d82-8191-4bbf-9dfc-8dcbbf6d4c53, !- Tuesday Schedule:Day Name
  5f20789d-735b-4a34-afd7-af15ef7eccf9, !- Wednesday Schedule:Day Name
  4c2a1ccf-1952-4b35-a126-9fb1bbc23b8e, !- Thursday Schedule:Day Name
  dd1aa813-7d78-4e60-800e-e799cc7b8e8f, !- Friday Schedule:Day Name
  b0b45b89-0624-46b0-b997-80cb3981b6f6, !- Saturday Schedule:Day Name
  1224162e-fc56-409b-8ae1-2d7516406fd8, !- Holiday Schedule:Day Name
  1224162e-fc56-409b-8ae1-2d7516406fd8, !- SummerDesignDay Schedule:Day Name
  1224162e-fc56-409b-8ae1-2d7516406fd8, !- WinterDesignDay Schedule:Day Name
  1224162e-fc56-409b-8ae1-2d7516406fd8, !- CustomDay1 Schedule:Day Name
  1224162e-fc56-409b-8ae1-2d7516406fd8; !- CustomDay2 Schedule:Day Name

Schedule:Week:Daily, NatVentAvail_Zone_0_25,
  4e02bae5-8d40-46e4-bf81-d9c3b6358b2c, !- Sunday Schedule:Day Name
  3613a1e6-3184-479d-b367-2738a7a3b3eb, !- Monday Schedule:Day Name
  529897b0-7851-4804-9490-ac1e49f6673f, !- Tuesday Schedule:Day Name
  9d69c5db-bd63-4630-97f2-9d120abb06c6, !- Wednesday Schedule:Day Name
  2cefe8fc-1770-49fb-a601-dfda7ff03f47, !- Thursday Schedule:Day Name
  4037ee14-3254-4792-bfa8-2175360c13e9, !- Friday Schedule:Day Name
  3859748b-33c7-4e00-ae6e-b31e8bc7824f, !- Saturday Schedule:Day Name
  4e02bae5-8d40-46e4-bf81-d9c3b6358b2c, !- Holiday Schedule:Day Name
  4e02bae5-8d40-46e4-bf81-d9c3b6358b2c, !- SummerDesignDay Schedule:Day Name
  4e02bae5-8d40-46e4-bf81-d9c3b6358b2c, !- WinterDesignDay Schedule:Day Name
  4e02bae5-8d40-46e4-bf81-d9c3b6358b2c, !- CustomDay1 Schedule:Day Name
  4e02bae5-8d40-46e4-bf81-d9c3b6358b2c; !- CustomDay2 Schedule:Day Name

Schedule:Week:Daily, NatVentAvail_Zone_0_26,
  fcfa0c08-e85a-4563-91d3-8a378f8b00f7, !- Sunday Schedule:Day Name
  e833de29-0e5a-4eea-9e99-0dfe15560ea2, !- Monday Schedule:Day Name
  8cd0645c-e606-4bae-895c-ed213f6c0605, !- Tuesday Schedule:Day Name
  e28f8a63-b26e-48a4-9dd2-da06f6fdb8a2, !- Wednesday Schedule:Day Name
  6d0e40b6-39de-4880-b0c4-78647832971f, !- Thursday Schedule:Day Name
  3ec7528c-0076-4af2-82af-63e732710f14, !- Friday Schedule:Day Name
  aa60f49c-668e-4b0b-a9f1-ecacc7d5058e, !- Saturday Schedule:Day Name
  fcfa0c08-e85a-4563-91d3-8a378f8b00f7, !- Holiday Schedule:Day Name
  fcfa0c08-e85a-4563-91d3-8a378f8b00f7, !- SummerDesignDay Schedule:Day Name
  fcfa0c08-e85a-4563-91d3-8a378f8b00f7, !- WinterDesignDay Schedule:Day Name
  fcfa0c08-e85a-4563-91d3-8a378f8b00f7, !- CustomDay1 Schedule:Day Name
  fcfa0c08-e85a-4563-91d3-8a378f8b00f7; !- CustomDay2 Schedule:Day Name

Schedule:Week:Daily, NatVentAvail_Zone_0_27,
  900f8897-d679-498c-964a-e08abe7a010a, !- Sunday Schedule:Day Name
  c1e3bcff-30e1-44de-966f-f72c3ee66235, !- Monday Schedule:Day Name
  38313005-a000-46bd-ba01-1acac6b541cf, !- Tuesday Schedule:Day Name
  9dc0585e-8f91-4f4c-b604-e2b31227b456, !- Wednesday Schedule:Day Name
  1a2d7176-5dcc-431d-90b4-390554eeb100, !- Thursday Schedule:Day Name
  72a5ac29-5b7e-4f60-bd95-01e8e2bcc9b8, !- Friday Schedule:Day Name
  774414ca-9b7b-487a-a3fd-b98c21cf5772, !- Saturday Schedule:Day Name
  900f8897-d679-498c-964a-e08abe7a010a, !- Holiday Schedule:Day Name
  900f8897-d679-498c-964a-e08abe7a010a, !- SummerDesignDay Schedule:Day Name
  900f8897-d679-498c-964a-e08abe7a010a, !- WinterDesignDay Schedule:Day Name
  900f8897-d679-498c-964a-e08abe7a010a, !- CustomDay1 Schedule:Day Name
  900f8897-d679-498c-964a-e08abe7a010a; !- CustomDay2 Schedule:Day Name

Schedule:Week:Daily, NatVentAvail_Zone_0_28,
  2ef98014-9e6e-40a1-998c-dde77398ffc6, !- Sunday Schedule:Day Name
  66da5199-9bc9-4ab5-9929-874f484ec80c, !- Monday Schedule:Day Name
  b815dc28-a146-400f-ada0-94291b5d85a8, !- Tuesday Schedule:Day Name
  9ca5801f-9201-4f92-8b84-ba0a8e2b12f5, !- Wednesday Schedule:Day Name
  d2731bbd-4a9e-4cae-989e-577b03c272ed, !- Thursday Schedule:Day Name
  f051a758-9935-4d23-87a9-78c9a44ec792, !- Friday Schedule:Day Name
  eb496d9f-7b03-42c8-b2b5-9388d680626d, !- Saturday Schedule:Day Name
  2ef98014-9e6e-40a1-998c-dde77398ffc6, !- Holiday Schedule:Day Name
  2ef98014-9e6e-40a1-998c-dde77398ffc6, !- SummerDesignDay Schedule:Day Name
  2ef98014-9e6e-40a1-998c-dde77398ffc6, !- WinterDesignDay Schedule:Day Name
  2ef98014-9e6e-40a1-998c-dde77398ffc6, !- CustomDay1 Schedule:Day Name
  2ef98014-9e6e-40a1-998c-dde77398ffc6; !- CustomDay2 Schedule:Day Name

Schedule:Week:Daily, NatVentAvail_Zone_0_29,
  e4cf45cf-9d0c-41e0-98f7-254dffee1c7f, !- Sunday Schedule:Day Name
  1bad2eae-558a-4862-b4f6-068e4c6d0c3e, !- Monday Schedule:Day Name
  5829ae45-b3e7-4c8e-869c-9b532bf8cf87, !- Tuesday Schedule:Day Name
  d039113e-f463-4c03-abfd-10bf9d994dbc, !- Wednesday Schedule:Day Name
  d2731bbd-4a9e-4cae-989e-577b03c272ed, !- Thursday Schedule:Day Name
  d2731bbd-4a9e-4cae-989e-577b03c272ed, !- Friday Schedule:Day Name
  36769c08-9ea6-441e-9b14-0b76b2f37273, !- Saturday Schedule:Day Name
  e4cf45cf-9d0c-41e0-98f7-254dffee1c7f, !- Holiday Schedule:Day Name
  e4cf45cf-9d0c-41e0-98f7-254dffee1c7f, !- SummerDesignDay Schedule:Day Name
  e4cf45cf-9d0c-41e0-98f7-254dffee1c7f, !- WinterDesignDay Schedule:Day Name
  e4cf45cf-9d0c-41e0-98f7-254dffee1c7f, !- CustomDay1 Schedule:Day Name
  e4cf45cf-9d0c-41e0-98f7-254dffee1c7f; !- CustomDay2 Schedule:Day Name

Schedule:Week:Daily, NatVentAvail_Zone_0_30,
  4b626bd2-ecf4-4f5d-8f0b-3299fc2b3475, !- Sunday Schedule:Day Name
  dc30819b-fcc9-4b43-8982-057702bd865d, !- Monday Schedule:Day Name
  456fd802-4dba-4a6a-bbdf-425ff04632ea, !- Tuesday Schedule:Day Name
  0beae952-e2e7-445f-82d1-229e610aec1a, !- Wednesday Schedule:Day Name
  5c412aa9-7adc-46ee-aad1-d03692015679, !- Thursday Schedule:Day Name
  a6052f76-024a-4bd9-8651-e7430569e010, !- Friday Schedule:Day Name
  75ec4b0a-24dc-4ac2-a103-f0e0a6c57565, !- Saturday Schedule:Day Name
  4b626bd2-ecf4-4f5d-8f0b-3299fc2b3475, !- Holiday Schedule:Day Name
  4b626bd2-ecf4-4f5d-8f0b-3299fc2b3475, !- SummerDesignDay Schedule:Day Name
  4b626bd2-ecf4-4f5d-8f0b-3299fc2b3475, !- WinterDesignDay Schedule:Day Name
  4b626bd2-ecf4-4f5d-8f0b-3299fc2b3475, !- CustomDay1 Schedule:Day Name
  4b626bd2-ecf4-4f5d-8f0b-3299fc2b3475; !- CustomDay2 Schedule:Day Name

Schedule:Week:Daily, NatVentAvail_Zone_0_31,
  cf2e73bf-f1de-4712-8122-db40299147c0, !- Sunday Schedule:Day Name
  a4b4137f-fc6c-43c9-8bc7-f9311de807df, !- Monday Schedule:Day Name
  5829ae45-b3e7-4c8e-869c-9b532bf8cf87, !- Tuesday Schedule:Day Name
  abb29aed-495a-4705-91f1-3a8a4e6eaa33, !- Wednesday Schedule:Day Name
  12baeba1-0667-4454-9826-5bab16f5419d, !- Thursday Schedule:Day Name
  17a6f6de-60d5-407a-b38c-222811e372f2, !- Friday Schedule:Day Name
  839f8ba5-6ea3-4700-b89f-c7b4204c58a8, !- Saturday Schedule:Day Name
  cf2e73bf-f1de-4712-8122-db40299147c0, !- Holiday Schedule:Day Name
  cf2e73bf-f1de-4712-8122-db40299147c0, !- SummerDesignDay Schedule:Day Name
  cf2e73bf-f1de-4712-8122-db40299147c0, !- WinterDesignDay Schedule:Day Name
  cf2e73bf-f1de-4712-8122-db40299147c0, !- CustomDay1 Schedule:Day Name
  cf2e73bf-f1de-4712-8122-db40299147c0; !- CustomDay2 Schedule:Day Name

Schedule:Week:Daily, NatVentAvail_Zone_0_32,
  98e20fd5-ec77-4a29-ab28-b67d060ee3ae, !- Sunday Schedule:Day Name
  ad286d7e-cf2d-4cb6-850b-da9794831c3c, !- Monday Schedule:Day Name
  2804bb82-cf93-4438-b717-2d0e743d5c3d, !- Tuesday Schedule:Day Name
  f3711ebd-20ee-47a3-a120-ae99c3915cda, !- Wednesday Schedule:Day Name
  f8552814-95fb-4faf-bf3e-4dc852836b2e, !- Thursday Schedule:Day Name
  ea193628-ee63-4e7d-a4ef-ba010a4590a8, !- Friday Schedule:Day Name
  9ff5b696-66d5-46f9-911d-e197730c718c, !- Saturday Schedule:Day Name
  98e20fd5-ec77-4a29-ab28-b67d060ee3ae, !- Holiday Schedule:Day Name
  98e20fd5-ec77-4a29-ab28-b67d060ee3ae, !- SummerDesignDay Schedule:Day Name
  98e20fd5-ec77-4a29-ab28-b67d060ee3ae, !- WinterDesignDay Schedule:Day Name
  98e20fd5-ec77-4a29-ab28-b67d060ee3ae, !- CustomDay1 Schedule:Day Name
  98e20fd5-ec77-4a29-ab28-b67d060ee3ae; !- CustomDay2 Schedule:Day Name

Schedule:Week:Daily, NatVentAvail_Zone_0_33,
  6386544d-eb41-4799-a931-655595351d69, !- Sunday Schedule:Day Name
  a68df781-c898-4715-82ee-9973033a5855, !- Monday Schedule:Day Name
  d29e0949-a8fd-42c1-9b1f-2bcca3f55f47, !- Tuesday Schedule:Day Name
  f9368dbf-2435-47ef-9207-f03126fc2f0d, !- Wednesday Schedule:Day Name
  eee479db-0118-4deb-9d6b-929e90944d5c, !- Thursday Schedule:Day Name
  a2639fa5-a44c-425f-928f-fbfd54647de3, !- Friday Schedule:Day Name
  891d6362-1ea2-4d24-a009-0760a7f21d88, !- Saturday Schedule:Day Name
  6386544d-eb41-4799-a931-655595351d69, !- Holiday Schedule:Day Name
  6386544d-eb41-4799-a931-655595351d69, !- SummerDesignDay Schedule:Day Name
  6386544d-eb41-4799-a931-655595351d69, !- WinterDesignDay Schedule:Day Name
  6386544d-eb41-4799-a931-655595351d69, !- CustomDay1 Schedule:Day Name
  6386544d-eb41-4799-a931-655595351d69; !- CustomDay2 Schedule:Day Name

Schedule:Week:Daily, NatVentAvail_Zone_0_34,
  3a91f24a-5f68-4922-9edd-508e48ccae29, !- Sunday Schedule:Day Name
  b0f97bc9-d42f-4552-b32d-09ce4b61c4b7, !- Monday Schedule:Day Name
  67b5a175-1fd3-4d4a-983d-e3cced3edf27, !- Tuesday Schedule:Day Name
  513a59b9-3847-41fb-ae73-178a964f97f1, !- Wednesday Schedule:Day Name
  11dce33a-7dde-4a94-8c0e-b8d0768890a9, !- Thursday Schedule:Day Name
  cc7916bc-db8c-4281-8e08-35af3ecc6f88, !- Friday Schedule:Day Name
  353cba36-d3a3-4713-87cc-aa976bb6bc1b, !- Saturday Schedule:Day Name
  3a91f24a-5f68-4922-9edd-508e48ccae29, !- Holiday Schedule:Day Name
  3a91f24a-5f68-4922-9edd-508e48ccae29, !- SummerDesignDay Schedule:Day Name
  3a91f24a-5f68-4922-9edd-508e48ccae29, !- WinterDesignDay Schedule:Day Name
  3a91f24a-5f68-4922-9edd-508e48ccae29, !- CustomDay1 Schedule:Day Name
  3a91f24a-5f68-4922-9edd-508e48ccae29; !- CustomDay2 Schedule:Day Name

Schedule:Week:Daily, NatVentAvail_Zone_0_35,
  203f3650-2c39-47c1-b070-4d0d170db42a, !- Sunday Schedule:Day Name
  aa15c890-87b4-4e87-a6e1-f0855e0f8342, !- Monday Schedule:Day Name
  ac9fad2d-3e51-4f97-881e-d2450c51413b, !- Tuesday Schedule:Day Name
  463a59ec-8c1e-4717-b5b9-6d96e3aaf57c, !- Wednesday Schedule:Day Name
  99ac96b2-0dbf-4191-92f5-f2c379e587cc, !- Thursday Schedule:Day Name
  5e69269b-5af9-43bf-8c07-ad1c1ed0810b, !- Friday Schedule:Day Name
  29320d22-cba8-4089-819f-c5d4d43fa96a, !- Saturday Schedule:Day Name
  203f3650-2c39-47c1-b070-4d0d170db42a, !- Holiday Schedule:Day Name
  203f3650-2c39-47c1-b070-4d0d170db42a, !- SummerDesignDay Schedule:Day Name
  203f3650-2c39-47c1-b070-4d0d170db42a, !- WinterDesignDay Schedule:Day Name
  203f3650-2c39-47c1-b070-4d0d170db42a, !- CustomDay1 Schedule:Day Name
  203f3650-2c39-47c1-b070-4d0d170db42a; !- CustomDay2 Schedule:Day Name

Schedule:Week:Daily, NatVentAvail_Zone_0_36,
  adfe1933-65bc-4465-b5b6-b2480e6df779, !- Sunday Schedule:Day Name
  3530dd22-4532-4c48-8a81-7935208ecb90, !- Monday Schedule:Day Name
  a1ae5c14-8bdd-4a1a-a4de-d8a3f16a8261, !- Tuesday Schedule:Day Name
  239bfcbd-ae48-45dc-b1e7-1cf5ed21ce2c, !- Wednesday Schedule:Day Name
  9fb9e60d-b04a-4eb7-ae36-549b63521ea5, !- Thursday Schedule:Day Name
  5d3e0aeb-8186-4e1e-8625-4d2b086647ab, !- Friday Schedule:Day Name
  529897b0-7851-4804-9490-ac1e49f6673f, !- Saturday Schedule:Day Name
  adfe1933-65bc-4465-b5b6-b2480e6df779, !- Holiday Schedule:Day Name
  adfe1933-65bc-4465-b5b6-b2480e6df779, !- SummerDesignDay Schedule:Day Name
  adfe1933-65bc-4465-b5b6-b2480e6df779, !- WinterDesignDay Schedule:Day Name
  adfe1933-65bc-4465-b5b6-b2480e6df779, !- CustomDay1 Schedule:Day Name
  adfe1933-65bc-4465-b5b6-b2480e6df779; !- CustomDay2 Schedule:Day Name

Schedule:Week:Daily, NatVentAvail_Zone_0_37,
  d2731bbd-4a9e-4cae-989e-577b03c272ed, !- Sunday Schedule:Day Name
  5cfce20f-4b5a-4f8f-9e99-0c27e035ead2, !- Monday Schedule:Day Name
  5caf8a2b-c64f-4e8a-a123-57e636d6520d, !- Tuesday Schedule:Day Name
  1d6c9646-011f-4b87-830c-9f2e81eb894e, !- Wednesday Schedule:Day Name
  95d5cc41-2e07-44f4-ae63-81b2ab534d86, !- Thursday Schedule:Day Name
  06d6f6e1-af1c-480b-b630-ce5e81cdfe58, !- Friday Schedule:Day Name
  d87e7adf-db9b-40dc-8770-d5f13eed24d8, !- Saturday Schedule:Day Name
  d2731bbd-4a9e-4cae-989e-577b03c272ed, !- Holiday Schedule:Day Name
  d2731bbd-4a9e-4cae-989e-577b03c272ed, !- SummerDesignDay Schedule:Day Name
  d2731bbd-4a9e-4cae-989e-577b03c272ed, !- WinterDesignDay Schedule:Day Name
  d2731bbd-4a9e-4cae-989e-577b03c272ed, !- CustomDay1 Schedule:Day Name
  d2731bbd-4a9e-4cae-989e-577b03c272ed; !- CustomDay2 Schedule:Day Name

Schedule:Week:Daily, NatVentAvail_Zone_0_38,
  8c32f261-35d3-48b4-adc0-1cf36df87938, !- Sunday Schedule:Day Name
  fe562275-099b-4251-968d-a5f9efec591f, !- Monday Schedule:Day Name
  adfe1933-65bc-4465-b5b6-b2480e6df779, !- Tuesday Schedule:Day Name
  e594e22a-3b08-4b96-86c9-808c022b34eb, !- Wednesday Schedule:Day Name
  46e82d33-941c-4582-934f-bdd72f7035ec, !- Thursday Schedule:Day Name
  91aabb77-215b-4820-913d-1a8fc7472e1a, !- Friday Schedule:Day Name
  4b9158e0-831f-42d8-b00e-819baced24e7, !- Saturday Schedule:Day Name
  8c32f261-35d3-48b4-adc0-1cf36df87938, !- Holiday Schedule:Day Name
  8c32f261-35d3-48b4-adc0-1cf36df87938, !- SummerDesignDay Schedule:Day Name
  8c32f261-35d3-48b4-adc0-1cf36df87938, !- WinterDesignDay Schedule:Day Name
  8c32f261-35d3-48b4-adc0-1cf36df87938, !- CustomDay1 Schedule:Day Name
  8c32f261-35d3-48b4-adc0-1cf36df87938; !- CustomDay2 Schedule:Day Name

Schedule:Week:Daily, NatVentAvail_Zone_0_39,
  45178cf4-77f9-40aa-a0a4-11b28ac7ef65, !- Sunday Schedule:Day Name
  f316293b-0c08-40d4-92af-08044d437992, !- Monday Schedule:Day Name
  d748a229-17c4-4497-a2ae-3035c432b4ba, !- Tuesday Schedule:Day Name
  e6a37407-86d4-4cb0-9234-5dc3a84775c9, !- Wednesday Schedule:Day Name
  8c39507f-33a6-4ff8-9f03-dbaed596b649, !- Thursday Schedule:Day Name
  b38128e5-a12c-4a58-9dde-fba743cebed9, !- Friday Schedule:Day Name
  d2731bbd-4a9e-4cae-989e-577b03c272ed, !- Saturday Schedule:Day Name
  45178cf4-77f9-40aa-a0a4-11b28ac7ef65, !- Holiday Schedule:Day Name
  45178cf4-77f9-40aa-a0a4-11b28ac7ef65, !- SummerDesignDay Schedule:Day Name
  45178cf4-77f9-40aa-a0a4-11b28ac7ef65, !- WinterDesignDay Schedule:Day Name
  45178cf4-77f9-40aa-a0a4-11b28ac7ef65, !- CustomDay1 Schedule:Day Name
  45178cf4-77f9-40aa-a0a4-11b28ac7ef65; !- CustomDay2 Schedule:Day Name

Schedule:Week:Daily, NatVentAvail_Zone_0_40,
  d039113e-f463-4c03-abfd-10bf9d994dbc, !- Sunday Schedule:Day Name
  ae17bf7a-8927-4f96-a92c-3781f31dfd8a, !- Monday Schedule:Day Name
  fe6554ca-8628-4ccb-8b54-dd986811f2d1, !- Tuesday Schedule:Day Name
  8ea2afa5-08b3-467e-b250-d4827c804e76, !- Wednesday Schedule:Day Name
  c4e88e66-9f75-4da0-a6ac-0b33e877d0be, !- Thursday Schedule:Day Name
  bab81914-34e8-4ddd-aefc-6cd734d028f3, !- Friday Schedule:Day Name
  9b2fd4d4-d846-415c-a825-30a781462de6, !- Saturday Schedule:Day Name
  d039113e-f463-4c03-abfd-10bf9d994dbc, !- Holiday Schedule:Day Name
  d039113e-f463-4c03-abfd-10bf9d994dbc, !- SummerDesignDay Schedule:Day Name
  d039113e-f463-4c03-abfd-10bf9d994dbc, !- WinterDesignDay Schedule:Day Name
  d039113e-f463-4c03-abfd-10bf9d994dbc, !- CustomDay1 Schedule:Day Name
  d039113e-f463-4c03-abfd-10bf9d994dbc; !- CustomDay2 Schedule:Day Name

Schedule:Week:Daily, NatVentAvail_Zone_0_41,
  5b1716bf-181d-41a3-9f7b-ef80271b80e1, !- Sunday Schedule:Day Name
  6258f966-8523-4853-adef-4dee850f0adb, !- Monday Schedule:Day Name
  73f93269-daba-4ebc-b955-d1fd76d945a4, !- Tuesday Schedule:Day Name
  e763b29b-bf6e-4e1d-9d0d-a4cabea98756, !- Wednesday Schedule:Day Name
  467dd736-25d9-4ff8-aedc-13087581dd97, !- Thursday Schedule:Day Name
  c55556ba-24e7-4d37-a9c1-061d3742c7f1, !- Friday Schedule:Day Name
  af922f35-e0a1-4a27-84ea-d0b4e065dbe1, !- Saturday Schedule:Day Name
  5b1716bf-181d-41a3-9f7b-ef80271b80e1, !- Holiday Schedule:Day Name
  5b1716bf-181d-41a3-9f7b-ef80271b80e1, !- SummerDesignDay Schedule:Day Name
  5b1716bf-181d-41a3-9f7b-ef80271b80e1, !- WinterDesignDay Schedule:Day Name
  5b1716bf-181d-41a3-9f7b-ef80271b80e1, !- CustomDay1 Schedule:Day Name
  5b1716bf-181d-41a3-9f7b-ef80271b80e1; !- CustomDay2 Schedule:Day Name

Schedule:Week:Daily, NatVentAvail_Zone_0_42,
  c7cb1aeb-54ff-4a8e-84d2-727d32ad7ea7, !- Sunday Schedule:Day Name
  c123f562-3212-4e5b-b5e8-717f03e186c3, !- Monday Schedule:Day Name
  2402ecfe-94b4-47b4-b03e-b079a797f2cc, !- Tuesday Schedule:Day Name
  721af8e3-e3dd-4a62-bebc-bcd04a2a32d3, !- Wednesday Schedule:Day Name
  b0220bd1-ae1f-441f-85d8-43b9a3f9bf12, !- Thursday Schedule:Day Name
  4db6a0d2-96ca-40a1-a261-a9c12359bfe1, !- Friday Schedule:Day Name
  a40d9d45-fe5e-4f79-952c-2cdd2428da93, !- Saturday Schedule:Day Name
  c7cb1aeb-54ff-4a8e-84d2-727d32ad7ea7, !- Holiday Schedule:Day Name
  c7cb1aeb-54ff-4a8e-84d2-727d32ad7ea7, !- SummerDesignDay Schedule:Day Name
  c7cb1aeb-54ff-4a8e-84d2-727d32ad7ea7, !- WinterDesignDay Schedule:Day Name
  c7cb1aeb-54ff-4a8e-84d2-727d32ad7ea7, !- CustomDay1 Schedule:Day Name
  c7cb1aeb-54ff-4a8e-84d2-727d32ad7ea7; !- CustomDay2 Schedule:Day Name

Schedule:Week:Daily, NatVentAvail_Zone_0_43,
  707e449d-a96c-4640-91ee-fdb99aca6005, !- Sunday Schedule:Day Name
  f5dedbc6-e168-4066-87d3-7737789f1eec, !- Monday Schedule:Day Name
  171b5ebe-801c-4f6d-a3d7-dc92ed8fdb8d, !- Tuesday Schedule:Day Name
  50aa25b0-5642-49e6-9fda-a143be1ea998, !- Wednesday Schedule:Day Name
  38c63bfb-621c-4173-89bb-438616ffccac, !- Thursday Schedule:Day Name
  a116b3bb-240f-4614-b137-b812d90a09a3, !- Friday Schedule:Day Name
  c17eae3d-c4f2-42d2-afe3-8a47478f2633, !- Saturday Schedule:Day Name
  707e449d-a96c-4640-91ee-fdb99aca6005, !- Holiday Schedule:Day Name
  707e449d-a96c-4640-91ee-fdb99aca6005, !- SummerDesignDay Schedule:Day Name
  707e449d-a96c-4640-91ee-fdb99aca6005, !- WinterDesignDay Schedule:Day Name
  707e449d-a96c-4640-91ee-fdb99aca6005, !- CustomDay1 Schedule:Day Name
  707e449d-a96c-4640-91ee-fdb99aca6005; !- CustomDay2 Schedule:Day Name

Schedule:Week:Daily, NatVentAvail_Zone_0_44,
  862286db-472f-4d0f-9267-c752abee69ef, !- Sunday Schedule:Day Name
  a8ce2460-a807-4254-a3fd-f622ca65d6b1, !- Monday Schedule:Day Name
  7f3b4c83-f614-4fbc-a50e-f4f361623d3b, !- Tuesday Schedule:Day Name
  af109099-3b5a-4e3a-8ded-8545fdd1c99d, !- Wednesday Schedule:Day Name
  f1e3db6a-a0ef-40b8-abd5-b55dff7eb1fd, !- Thursday Schedule:Day Name
  c83eb53a-b2bc-4153-ac7c-1f3fba6df8c8, !- Friday Schedule:Day Name
  900d1e06-11c2-4448-89f8-e91c613a007b, !- Saturday Schedule:Day Name
  862286db-472f-4d0f-9267-c752abee69ef, !- Holiday Schedule:Day Name
  862286db-472f-4d0f-9267-c752abee69ef, !- SummerDesignDay Schedule:Day Name
  862286db-472f-4d0f-9267-c752abee69ef, !- WinterDesignDay Schedule:Day Name
  862286db-472f-4d0f-9267-c752abee69ef, !- CustomDay1 Schedule:Day Name
  862286db-472f-4d0f-9267-c752abee69ef; !- CustomDay2 Schedule:Day Name

Schedule:Week:Daily, NatVentAvail_Zone_0_45,
  2b103ae3-cff9-48dc-a7cd-95ddd8d247a1, !- Sunday Schedule:Day Name
  dc30819b-fcc9-4b43-8982-057702bd865d, !- Monday Schedule:Day Name
  acc4b0a4-c586-4c4d-b2dd-c4c3f9f207f3, !- Tuesday Schedule:Day Name
  34d14f7a-b916-41d6-adb4-6f1575ce9a44, !- Wednesday Schedule:Day Name
  d748a229-17c4-4497-a2ae-3035c432b4ba, !- Thursday Schedule:Day Name
  93a59cca-1fca-4aae-aac6-867199233573, !- Friday Schedule:Day Name
  2b103ae3-cff9-48dc-a7cd-95ddd8d247a1, !- Saturday Schedule:Day Name
  2b103ae3-cff9-48dc-a7cd-95ddd8d247a1, !- Holiday Schedule:Day Name
  2b103ae3-cff9-48dc-a7cd-95ddd8d247a1, !- SummerDesignDay Schedule:Day Name
  2b103ae3-cff9-48dc-a7cd-95ddd8d247a1, !- WinterDesignDay Schedule:Day Name
  2b103ae3-cff9-48dc-a7cd-95ddd8d247a1, !- CustomDay1 Schedule:Day Name
  2b103ae3-cff9-48dc-a7cd-95ddd8d247a1; !- CustomDay2 Schedule:Day Name

Schedule:Week:Daily, NatVentAvail_Zone_0_46,
  85b21898-48cb-4375-96c5-dc00d1059298, !- Sunday Schedule:Day Name
  c123f562-3212-4e5b-b5e8-717f03e186c3, !- Monday Schedule:Day Name
  d1c9bc75-c058-45c0-a544-76fb4feea33c, !- Tuesday Schedule:Day Name
  74945d1f-06a4-4268-8a68-b03d2f7a42bb, !- Wednesday Schedule:Day Name
  09dc48e1-efa4-4e49-a927-84a0933d98ab, !- Thursday Schedule:Day Name
  a9f7f320-338d-4e6c-8bf6-eb12e8f50895, !- Friday Schedule:Day Name
  f3a633aa-f84f-466f-b1f1-74b93fcda673, !- Saturday Schedule:Day Name
  85b21898-48cb-4375-96c5-dc00d1059298, !- Holiday Schedule:Day Name
  85b21898-48cb-4375-96c5-dc00d1059298, !- SummerDesignDay Schedule:Day Name
  85b21898-48cb-4375-96c5-dc00d1059298, !- WinterDesignDay Schedule:Day Name
  85b21898-48cb-4375-96c5-dc00d1059298, !- CustomDay1 Schedule:Day Name
  85b21898-48cb-4375-96c5-dc00d1059298; !- CustomDay2 Schedule:Day Name

Schedule:Week:Daily, NatVentAvail_Zone_0_47,
  0a520e93-22f5-4584-8d1d-d5505498a18d, !- Sunday Schedule:Day Name
  4e5c9730-a45a-433e-b500-a79c2109b913, !- Monday Schedule:Day Name
  bd02d315-dcd0-4845-be8b-5223ffb6df37, !- Tuesday Schedule:Day Name
  2f419156-0514-4ab8-85fa-0776184a07d2, !- Wednesday Schedule:Day Name
  93cd28ee-7434-4d9e-a5b9-5950b4f27840, !- Thursday Schedule:Day Name
  d9288765-6eec-4f12-a8e9-528d922dcb2e, !- Friday Schedule:Day Name
  8d7a03b9-8e40-417e-b178-7f101652e5b2, !- Saturday Schedule:Day Name
  0a520e93-22f5-4584-8d1d-d5505498a18d, !- Holiday Schedule:Day Name
  0a520e93-22f5-4584-8d1d-d5505498a18d, !- SummerDesignDay Schedule:Day Name
  0a520e93-22f5-4584-8d1d-d5505498a18d, !- WinterDesignDay Schedule:Day Name
  0a520e93-22f5-4584-8d1d-d5505498a18d, !- CustomDay1 Schedule:Day Name
  0a520e93-22f5-4584-8d1d-d5505498a18d; !- CustomDay2 Schedule:Day Name

Schedule:Week:Daily, NatVentAvail_Zone_0_48,
  ca6925f6-5c5c-4ac6-b935-d455f66a94cd, !- Sunday Schedule:Day Name
  b599c4b4-34f6-44c7-86da-6ef2a1616342, !- Monday Schedule:Day Name
  1273d4e8-8015-4a9d-80e0-d040d6bbee92, !- Tuesday Schedule:Day Name
  95012aa8-3333-4b32-a3cc-4de977a8940e, !- Wednesday Schedule:Day Name
  5563af15-18f1-47b5-9951-a78146bc41c7, !- Thursday Schedule:Day Name
  eb96f4fc-6bec-4c9a-96e9-f10a2b937ee5, !- Friday Schedule:Day Name
  e62fcf05-bc2b-4ad6-a36e-3b90333e5145, !- Saturday Schedule:Day Name
  ca6925f6-5c5c-4ac6-b935-d455f66a94cd, !- Holiday Schedule:Day Name
  ca6925f6-5c5c-4ac6-b935-d455f66a94cd, !- SummerDesignDay Schedule:Day Name
  ca6925f6-5c5c-4ac6-b935-d455f66a94cd, !- WinterDesignDay Schedule:Day Name
  ca6925f6-5c5c-4ac6-b935-d455f66a94cd, !- CustomDay1 Schedule:Day Name
  ca6925f6-5c5c-4ac6-b935-d455f66a94cd; !- CustomDay2 Schedule:Day Name

Schedule:Week:Daily, NatVentAvail_Zone_0_49,
  2308900b-6c99-4183-8ff6-e51b2ba5e515, !- Sunday Schedule:Day Name
  04f4fe2c-506c-40cf-b1bb-edc92b2bab27, !- Monday Schedule:Day Name
  046bab3e-654a-4591-8745-daee590c86ba, !- Tuesday Schedule:Day Name
  b9e90960-8f2b-41d5-9752-42b5ee517533, !- Wednesday Schedule:Day Name
  4e73ec66-2a0b-4959-acf2-1b4a454661f5, !- Thursday Schedule:Day Name
  c29965d3-b159-48b6-96b6-c6148f016c84, !- Friday Schedule:Day Name
  3bff24ef-64f2-4de7-a03b-d7f5843ff033, !- Saturday Schedule:Day Name
  2308900b-6c99-4183-8ff6-e51b2ba5e515, !- Holiday Schedule:Day Name
  2308900b-6c99-4183-8ff6-e51b2ba5e515, !- SummerDesignDay Schedule:Day Name
  2308900b-6c99-4183-8ff6-e51b2ba5e515, !- WinterDesignDay Schedule:Day Name
  2308900b-6c99-4183-8ff6-e51b2ba5e515, !- CustomDay1 Schedule:Day Name
  2308900b-6c99-4183-8ff6-e51b2ba5e515; !- CustomDay2 Schedule:Day Name

Schedule:Week:Daily, NatVentAvail_Zone_0_50,
  6b519921-2569-4c9f-bd6d-ea0b94186af9, !- Sunday Schedule:Day Name
  fe6554ca-8628-4ccb-8b54-dd986811f2d1, !- Monday Schedule:Day Name
  3b21223f-68a8-4be7-974c-23edd7627b52, !- Tuesday Schedule:Day Name
  7614f939-5041-4a07-977c-f9116da5cbc9, !- Wednesday Schedule:Day Name
  5dbee988-9168-4de7-8b3f-76c8d2b5d5f3, !- Thursday Schedule:Day Name
  1676533c-0f33-4902-a4c8-330657b57c97, !- Friday Schedule:Day Name
  9b9b0a3e-80c7-4d86-9910-6e57ae3a59c0, !- Saturday Schedule:Day Name
  6b519921-2569-4c9f-bd6d-ea0b94186af9, !- Holiday Schedule:Day Name
  6b519921-2569-4c9f-bd6d-ea0b94186af9, !- SummerDesignDay Schedule:Day Name
  6b519921-2569-4c9f-bd6d-ea0b94186af9, !- WinterDesignDay Schedule:Day Name
  6b519921-2569-4c9f-bd6d-ea0b94186af9, !- CustomDay1 Schedule:Day Name
  6b519921-2569-4c9f-bd6d-ea0b94186af9; !- CustomDay2 Schedule:Day Name

Schedule:Week:Daily, NatVentAvail_Zone_0_51,
  8bbbcc42-0e9f-421e-bd91-e60935f42508, !- Sunday Schedule:Day Name
  524f5a45-bdb3-4824-b9ed-08a7e30e8521, !- Monday Schedule:Day Name
  1ab10b4b-f984-4963-9331-8c4d30db1c2d, !- Tuesday Schedule:Day Name
  4ecfaead-8de6-4bda-8e89-f0058d5f0d0e, !- Wednesday Schedule:Day Name
  c0ff571f-0104-45c1-a290-e3d08bfea3af, !- Thursday Schedule:Day Name
  d3b457b6-98d5-4410-9f85-ea4af5e40fd1, !- Friday Schedule:Day Name
  17a6f6de-60d5-407a-b38c-222811e372f2, !- Saturday Schedule:Day Name
  8bbbcc42-0e9f-421e-bd91-e60935f42508, !- Holiday Schedule:Day Name
  8bbbcc42-0e9f-421e-bd91-e60935f42508, !- SummerDesignDay Schedule:Day Name
  8bbbcc42-0e9f-421e-bd91-e60935f42508, !- WinterDesignDay Schedule:Day Name
  8bbbcc42-0e9f-421e-bd91-e60935f42508, !- CustomDay1 Schedule:Day Name
  8bbbcc42-0e9f-421e-bd91-e60935f42508; !- CustomDay2 Schedule:Day Name

Schedule:Week:Daily, NatVentAvail_Zone_0_52,
  af574cab-18cb-4fa5-a31a-27d4ae13062d, !- Sunday Schedule:Day Name
  af574cab-18cb-4fa5-a31a-27d4ae13062d, !- Monday Schedule:Day Name
  af574cab-18cb-4fa5-a31a-27d4ae13062d, !- Tuesday Schedule:Day Name
  af574cab-18cb-4fa5-a31a-27d4ae13062d, !- Wednesday Schedule:Day Name
  af574cab-18cb-4fa5-a31a-27d4ae13062d, !- Thursday Schedule:Day Name
  af574cab-18cb-4fa5-a31a-27d4ae13062d, !- Friday Schedule:Day Name
  af574cab-18cb-4fa5-a31a-27d4ae13062d, !- Saturday Schedule:Day Name
  af574cab-18cb-4fa5-a31a-27d4ae13062d, !- Holiday Schedule:Day Name
  af574cab-18cb-4fa5-a31a-27d4ae13062d, !- SummerDesignDay Schedule:Day Name
  af574cab-18cb-4fa5-a31a-27d4ae13062d, !- WinterDesignDay Schedule:Day Name
  af574cab-18cb-4fa5-a31a-27d4ae13062d, !- CustomDay1 Schedule:Day Name
  af574cab-18cb-4fa5-a31a-27d4ae13062d; !- CustomDay2 Schedule:Day Name




!------------------------------------------------ ZONE ----------------------------------------------------

Zone,
  Zone_0,            !- Name
  0,                       !- Rotation [deg]
  0,                       !- X origin [m]
  0,                       !- Y origin [m]
  0,                       !- Z origin [m]
  1,                       !- Type
  1,                       !- Multiplier
  ,                        !- CeilingHeight [m]
  281.8892438601215,                   !- Volume [m3]
  107.58865317179078,                   !- Area [m2]
  TARP,                    !- Zone Inside Convection Algorithm
  DOE-2;                   !- Zone Outside Convection Algorithm

! ------------------------ PEOPLE
People,
    People Zone_0,   !- Name
    Zone_0,  !- Zone or ZoneList Name
    ApartmentMidRise OCC_APT_SCH,    !- OccupancySchedule
    People/Area,    !- Number of People Calculation Method
    ,   !- Number of People
    0.18,    !- PeopleDensity [person/m2]
    ,   !- Floor Area per Person [m2/person]
    0.3,    !- Fraction Radiant
    AUTOCALCULATE,  !- Sensible Heat Fraction
    Zone_0PeopleActivity,    !- Activity Level Schedule Name
    3.82E-08,   !- Carbon Dioxide Generation Rate [m3/s-W]
    No, !- Enable ASHRAE 55 Comfort Warnings
    ZoneAveraged,   !- Mean Radiant Temperature Calculation Type
    ,   !- Surface Name/Angle Factor List Name
    Zone_0WorkEfficiency,    !- Work Efficiency Schedule Name
    DynamicClothingModelASHRAE55,   !- Clothing Insulation Calculation Method
    ,   !- Clothing Insulation Calculation Method Schedule Name
    ,   !- Clothing Insulation Schedule Name
    AirSpeed 0,!- Air Velocity Schedule Name
    AdaptiveASH55,               !- Thermal Comfort Model 1 Type
    Pierce,               !- Thermal Comfort Model 2 Type
    Fanger;               !- Thermal Comfort Model 3 Type




    Schedule:Constant,
    Zone_0PeopleActivity,
    Any Number,
    125.27999999999999; !- MetabolicRate [met]
    Schedule:Constant,
    Zone_0WorkEfficiency,
    Any Number, 
    0;


! ------------------------ EQUIPMENT
ElectricEquipment,
  Zone_0 Equipment,!- Name
  Zone_0,            !- Zone or ZoneList Name
  ApartmentMidRise EQP_APT_SCH, !- EquipmentAvailibilitySchedule
  Watts/Area,          !- Design Level Calculation Method
  ,                !- Design Level [W]
  12, !- EquipmentPowerDensity [W/m2]
  ,                        !- Watts per Person [W/person]
  0,                       !- Fraction Latent
  .2,                      !- Fraction Radiant
  0,                       !- Fraction Lost
  ;                        !- End-Use Subcategory

! ------------------------ LIGHTS
Lights,
  Zone_0 General lighting,   !- Name
  Zone_0,                    !- Zone or ZoneList Name
  ApartmentMidRise LTG_APT_SCH, !- LightsAvailibilitySchedule
  Watts/Area,              !- Design Level Calculation Method
  ,                        !- Lighting Level [W]
  10,   !- LightingPowerDensity [W/m2]
  ,                        !- Watts per Person [W/person]
  0,                       !- Return Air Fraction
  .42,                     !- Fraction Radiant
  .18,                     !- Fraction Visible
  1,                       !- Fraction Replaceable
  ;                        !- End-Use Subcategory

! ------------------------ NATVENT


ZoneVentilation:WindandStackOpenArea,
Zone_0NatVent_Buoy,          !- Name
Zone_0,                  !- Zone Name
51.37863969006058,                       !- Opening Area {m2}
NatVentAvail_Zone_0,                !- Opening Area Fraction Schedule Name
0,                     !- Opening Effectiveness {dimensionless}
0,                     !- Effective Angle {deg}
0.35077876945409603,                       !- Height Difference {m}
0.6,                       !- Discharge Coefficient for Opening
22,                    !- Minimum Indoor Temperature {C}
,                        !- Minimum Indoor Temperature Schedule Name
100,                     !- Maximum Indoor Temperature {C}
,                        !- Maximum Indoor Temperature Schedule Name
1,                    !- Delta Temperature {deltaC}
,                        !- Delta Temperature Schedule Name
0,                    !- Minimum Outdoor Temperature {C}
,                        !- Minimum Outdoor Temperature Schedule Name
30,                     !- Maximum Outdoor Temperature {C}
,                        !- Maximum Outdoor Temperature Schedule Name
40;                      !- Maximum Wind Speed {m/s}

! ------------------------ INFILTRATION
ZoneInfiltration:DesignFlowRate,
  Zone_0Infiltration,  !- Name
  Zone_0,            !- Zone or ZoneList Name
  On,                      !- Schedule Name
  AirChanges/Hour,               !- Design Flow Rate Calculation Method
  ,                        !- Design Flow Rate [m3/s]
  ,                        !- Flow per Zone Floor Area [m3/s-m2]
  ,                        !- Flow per Exterior Surface Area [m3/s-m2]
  0.1, !- @Zone_0-InfiltrationAch@ [Air Changes per Hour]
  1, !- @Zone_0-InfiltrationConstantCoefficient@ 
  0, !- @Zone_0-InfiltrationTemperatureCoefficient@ 
  0, !- @Zone_0-InfiltrationWindVelocityCoefficient@  
  0; !- @Zone_0-InfiltrationWindVelocitySquaredCoefficient@ 

! ------------------------ GEOMETRY ------------------------

! FACE NORMAL  -0 -0 -1
BuildingSurface:Detailed,!-Type
Zone_0:f0, !-Name
Floor,                    !-Surface Type
90.1-2019 Nonresidential CZ 0 Exterior Floor (Mass),                       !-Construction Name
Zone_0,            !-Zone Name
,            !-Space Name
Outdoors,                !-Outside Boundary Condition
,                        !-Outside Boundary Condition Object
NoSun,              !-Sun Exposure
WindExposed,             !-Wind Exposure
Autocalculate,                      !-View Factor to Ground
25,                       !-Number of Vertices

137.9564, 8.6393, 12.6428,  !- X,Y,Z ==> Vertex
136.6222, 8.6393, 12.6428,  !- X,Y,Z ==> Vertex
136.6222, 14.3440, 12.6428,  !- X,Y,Z ==> Vertex
135.6999, 14.3440, 12.6428,  !- X,Y,Z ==> Vertex
135.6999, 14.6346, 12.6428,  !- X,Y,Z ==> Vertex
131.1932, 14.6346, 12.6428,  !- X,Y,Z ==> Vertex
135.6999, 18.7414, 12.6428,  !- X,Y,Z ==> Vertex
135.6999, 14.3440, 12.6428,  !- X,Y,Z ==> Vertex
125.5895, 14.3440, 12.6428,  !- X,Y,Z ==> Vertex
125.5895, 16.1325, 12.6428,  !- X,Y,Z ==> Vertex
126.8849, 16.1325, 12.6428,  !- X,Y,Z ==> Vertex
126.8849, 17.6547, 12.6428,  !- X,Y,Z ==> Vertex
123.4878, 17.6547, 12.6428,  !- X,Y,Z ==> Vertex
123.4900, 21.6557, 12.6428,  !- X,Y,Z ==> Vertex
127.0387, 21.6569, 12.6428,  !- X,Y,Z ==> Vertex
127.0387, 19.4648, 12.6428,  !- X,Y,Z ==> Vertex
132.0081, 19.4648, 12.6428,  !- X,Y,Z ==> Vertex
132.0081, 28.1489, 12.6428,  !- X,Y,Z ==> Vertex
136.4535, 28.1542, 12.6428,  !- X,Y,Z ==> Vertex
136.4551, 24.1538, 12.6428,  !- X,Y,Z ==> Vertex
137.9540, 24.1543, 12.6429,  !- X,Y,Z ==> Vertex
137.9537, 16.7234, 12.6428,  !- X,Y,Z ==> Vertex
137.9398, 16.7234, 12.6428,  !- X,Y,Z ==> Vertex
137.9398, 11.1436, 12.6428,  !- X,Y,Z ==> Vertex
137.9507, 11.1436, 12.6428;  !- X,Y,Z ==> Vertex


! FACE NORMAL  0.9999973632004421 0.002296430308795248 -0
BuildingSurface:Detailed,!-Type
Zone_0:f1, !-Name
Wall,                    !-Surface Type
90.1-2019 Nonresidential CZ 0 Exterior Wall (Mass),                       !-Construction Name
Zone_0,            !-Zone Name
,            !-Space Name
Outdoors,                !-Outside Boundary Condition
,                        !-Outside Boundary Condition Object
SunExposed,              !-Sun Exposure
WindExposed,             !-Wind Exposure
Autocalculate,                      !-View Factor to Ground
4,                       !-Number of Vertices

137.9564, 8.6393, 12.6428,  !- X,Y,Z ==> Vertex
137.9507, 11.1436, 12.6428,  !- X,Y,Z ==> Vertex
137.9507, 11.1436, 15.2628,  !- X,Y,Z ==> Vertex
137.9564, 8.6393, 15.2628;  !- X,Y,Z ==> Vertex


FenestrationSurface:Detailed,
Zone_0:f1:w0, !-Name
Window,                  !- Surface Type
DoublePaneClr,   !- @Zone_0:f1:w0-Construction@
Zone_0:f1, !- Building Surface Name
,                        !- Outside Boundary Condition Object
Autocalculate,                      !- View Factor to Ground
Zone_0:f1:w0Frame,                       !- Frame and Divider Name
1,                       !- Multiplier
4,                       !-Number of Vertices

137.9554, 9.1099, 13.1133,  !- X,Y,Z ==> Vertex
137.9518, 10.6731, 13.1133,  !- X,Y,Z ==> Vertex
137.9518, 10.6731, 14.7922,  !- X,Y,Z ==> Vertex
137.9554, 9.1099, 14.7923;  !- X,Y,Z ==> Vertex

WindowProperty:FrameAndDivider,
    Zone_0:f1:w0Frame,    !- Name
    0.05,   !- Width [m]
    0.01,   !- FrameOutsideProjection [m]
    0.01,   !- FrameInsideProjection [m]
    6,   !- FrameConductance [W/m2-K]
    1.5,   !- Ratio of Frame-Edge Glass Conductance to Center-Of-Glass Conductance
    0.8,                     !- Frame Solar Absorptance
    0.8,                     !- Frame Visible Absorptance
    0.9,                     !- Frame Thermal Hemispherical Emissivity
    DividedLite,             !- Divider Type
    0,   !- DividerWidth [m]
    0,                       !- Number of Horizontal Dividers
    0,                       !- Number of Vertical Dividers
    0.03,                    !- Divider Outside Projection [m]
    0.03,                    !- Divider Inside Projection [m]
    6,                     !- Divider Conductance [W/m2-K]
    1.5,                     !- Ratio of Divider-Edge Glass Conductance to Center-Of-Glass Conductance
    0.8,                     !- Divider Solar Absorptance
    0.8,                     !- Divider Visible Absorptance
    0.9,                     !- Divider Thermal Hemispherical Emissivity
    0.7,                     !- Outside Reveal Solar Absorptance
    0,   !- InsideSillDepth [m]
    0.6,                     !- Inside Sill Solar Absorptance
    0,   !- InsideRevealDepth [m]
    0.5;                     !- Inside Reveal Solar Absorptance


WindowShadingControl,
Zone_0:f1:w0_ShadingControl,                                          !- Name of shading control
Zone_0,                                          !- Zone Name
1,                       !-Shading Control Sequence Number
ExteriorShade,                                 !- Shading type
,                                              !- Construction with Shading Name
OnIfHighSolarOnWindow,   !- @Zone_0:f1:w0-ShadingControlType@
AllOn,   !- @Zone_0:f1:w0-ShadingSystemAvailibilitySchedule@
180,   !- @Zone_0:f1:w0-ShadingSystemSetPoint@
  Yes,                                           !- Shading control is scheduled
  No,                                            !- Glare control is active
Zone_0:f1:w0_Shade,                              !- Material name of shading device
  FixedSlatAngle,                                !- Type of slat angle control
  ,                                              !- Slat angle schedule name
  0,                                             !- Setpoint 2
, !-Daylighting Control Object Name
Sequential, !-Multiple Surface Control Type
Zone_0:f1:w0; !-Fenestration Surface 1 Name

WindowMaterial:Shade,
  Zone_0:f1:w0_Shade, !- Name
  0.5,   !- @Zone_0:f1:w0-ShadingSystemTransmittanceSolar@
  0.49, !- Solar Reflectance
  0.5,   !- @Zone_0:f1:w0-ShadingSystemTransmittanceVisible@
  0.49, !- Visible reflectance
  0.9, !- Thermal Hemispherical Emissivity
  0.0, !- Infrared Transmittance 
  0.003,   !- @Zone_0:f1:w0-ShadingThickness@ [m]
  0.1,   !- @Zone_0:f1:w0-ShadingConductivity@ [W/m-K]
  0.05,   !- @Zone_0:f1:w0-ShadeGlassDistance@ [m]
  1,   !- Top opening multiplier
  1,   !- Bottom opening multiplier
  1,   !- Left-side opening multiplier
  1,   !- Right-side opening multiplier
  0.0; !- Air flow permeability



! FACE NORMAL  1 0 -0
BuildingSurface:Detailed,!-Type
Zone_0:f2, !-Name
Wall,                    !-Surface Type
90.1-2019 Nonresidential CZ 0 Exterior Wall (Mass),                       !-Construction Name
Zone_0,            !-Zone Name
,            !-Space Name
Outdoors,                !-Outside Boundary Condition
,                        !-Outside Boundary Condition Object
SunExposed,              !-Sun Exposure
WindExposed,             !-Wind Exposure
Autocalculate,                      !-View Factor to Ground
4,                       !-Number of Vertices

137.9398, 11.1436, 12.6428,  !- X,Y,Z ==> Vertex
137.9398, 16.7234, 12.6428,  !- X,Y,Z ==> Vertex
137.9398, 16.7234, 15.2628,  !- X,Y,Z ==> Vertex
137.9398, 11.1436, 15.2628;  !- X,Y,Z ==> Vertex


FenestrationSurface:Detailed,
Zone_0:f2:w0, !-Name
Window,                  !- Surface Type
DoublePaneClr,   !- @Zone_0:f2:w0-Construction@
Zone_0:f2, !- Building Surface Name
,                        !- Outside Boundary Condition Object
Autocalculate,                      !- View Factor to Ground
Zone_0:f2:w0Frame,                       !- Frame and Divider Name
1,                       !- Multiplier
4,                       !-Number of Vertices

137.9398, 11.7760, 13.2752,  !- X,Y,Z ==> Vertex
137.9398, 16.0910, 13.2752,  !- X,Y,Z ==> Vertex
137.9398, 16.0910, 14.6304,  !- X,Y,Z ==> Vertex
137.9398, 11.7760, 14.6304;  !- X,Y,Z ==> Vertex

WindowProperty:FrameAndDivider,
    Zone_0:f2:w0Frame,    !- Name
    0.05,   !- Width [m]
    0.01,   !- FrameOutsideProjection [m]
    0.01,   !- FrameInsideProjection [m]
    6,   !- FrameConductance [W/m2-K]
    1.5,   !- Ratio of Frame-Edge Glass Conductance to Center-Of-Glass Conductance
    0.8,                     !- Frame Solar Absorptance
    0.8,                     !- Frame Visible Absorptance
    0.9,                     !- Frame Thermal Hemispherical Emissivity
    DividedLite,             !- Divider Type
    0,   !- DividerWidth [m]
    0,                       !- Number of Horizontal Dividers
    0,                       !- Number of Vertical Dividers
    0.03,                    !- Divider Outside Projection [m]
    0.03,                    !- Divider Inside Projection [m]
    6,                     !- Divider Conductance [W/m2-K]
    1.5,                     !- Ratio of Divider-Edge Glass Conductance to Center-Of-Glass Conductance
    0.8,                     !- Divider Solar Absorptance
    0.8,                     !- Divider Visible Absorptance
    0.9,                     !- Divider Thermal Hemispherical Emissivity
    0.7,                     !- Outside Reveal Solar Absorptance
    0,   !- InsideSillDepth [m]
    0.6,                     !- Inside Sill Solar Absorptance
    0,   !- InsideRevealDepth [m]
    0.5;                     !- Inside Reveal Solar Absorptance


WindowShadingControl,
Zone_0:f2:w0_ShadingControl,                                          !- Name of shading control
Zone_0,                                          !- Zone Name
1,                       !-Shading Control Sequence Number
ExteriorShade,                                 !- Shading type
,                                              !- Construction with Shading Name
OnIfHighSolarOnWindow,   !- @Zone_0:f2:w0-ShadingControlType@
AllOn,   !- @Zone_0:f2:w0-ShadingSystemAvailibilitySchedule@
180,   !- @Zone_0:f2:w0-ShadingSystemSetPoint@
  Yes,                                           !- Shading control is scheduled
  No,                                            !- Glare control is active
Zone_0:f2:w0_Shade,                              !- Material name of shading device
  FixedSlatAngle,                                !- Type of slat angle control
  ,                                              !- Slat angle schedule name
  0,                                             !- Setpoint 2
, !-Daylighting Control Object Name
Sequential, !-Multiple Surface Control Type
Zone_0:f2:w0; !-Fenestration Surface 1 Name

WindowMaterial:Shade,
  Zone_0:f2:w0_Shade, !- Name
  0.5,   !- @Zone_0:f2:w0-ShadingSystemTransmittanceSolar@
  0.49, !- Solar Reflectance
  0.5,   !- @Zone_0:f2:w0-ShadingSystemTransmittanceVisible@
  0.49, !- Visible reflectance
  0.9, !- Thermal Hemispherical Emissivity
  0.0, !- Infrared Transmittance 
  0.003,   !- @Zone_0:f2:w0-ShadingThickness@ [m]
  0.1,   !- @Zone_0:f2:w0-ShadingConductivity@ [W/m-K]
  0.05,   !- @Zone_0:f2:w0-ShadeGlassDistance@ [m]
  1,   !- Top opening multiplier
  1,   !- Bottom opening multiplier
  1,   !- Left-side opening multiplier
  1,   !- Right-side opening multiplier
  0.0; !- Air flow permeability



! FACE NORMAL  0.9999999851635106 -0.0001722584642922842 -0
BuildingSurface:Detailed,!-Type
Zone_0:f3, !-Name
Wall,                    !-Surface Type
90.1-2019 Nonresidential CZ 0 Exterior Wall (Mass),                       !-Construction Name
Zone_0,            !-Zone Name
,            !-Space Name
Outdoors,                !-Outside Boundary Condition
,                        !-Outside Boundary Condition Object
SunExposed,              !-Sun Exposure
WindExposed,             !-Wind Exposure
Autocalculate,                      !-View Factor to Ground
4,                       !-Number of Vertices

137.9537, 16.7234, 12.6428,  !- X,Y,Z ==> Vertex
137.9540, 18.4817, 12.6428,  !- X,Y,Z ==> Vertex
137.9540, 18.4817, 15.2628,  !- X,Y,Z ==> Vertex
137.9537, 16.7234, 15.2628;  !- X,Y,Z ==> Vertex


FenestrationSurface:Detailed,
Zone_0:f3:w0, !-Name
Window,                  !- Surface Type
DoublePaneClr,   !- @Zone_0:f3:w0-Construction@
Zone_0:f3, !- Building Surface Name
,                        !- Outside Boundary Condition Object
Autocalculate,                      !- View Factor to Ground
Zone_0:f3:w0Frame,                       !- Frame and Divider Name
1,                       !- Multiplier
4,                       !-Number of Vertices

137.9537, 17.1059, 13.0253,  !- X,Y,Z ==> Vertex
137.9539, 18.0993, 13.0253,  !- X,Y,Z ==> Vertex
137.9539, 18.0993, 14.8803,  !- X,Y,Z ==> Vertex
137.9537, 17.1059, 14.8803;  !- X,Y,Z ==> Vertex

WindowProperty:FrameAndDivider,
    Zone_0:f3:w0Frame,    !- Name
    0.05,   !- Width [m]
    0.01,   !- FrameOutsideProjection [m]
    0.01,   !- FrameInsideProjection [m]
    6,   !- FrameConductance [W/m2-K]
    1.5,   !- Ratio of Frame-Edge Glass Conductance to Center-Of-Glass Conductance
    0.8,                     !- Frame Solar Absorptance
    0.8,                     !- Frame Visible Absorptance
    0.9,                     !- Frame Thermal Hemispherical Emissivity
    DividedLite,             !- Divider Type
    0,   !- DividerWidth [m]
    0,                       !- Number of Horizontal Dividers
    0,                       !- Number of Vertical Dividers
    0.03,                    !- Divider Outside Projection [m]
    0.03,                    !- Divider Inside Projection [m]
    6,                     !- Divider Conductance [W/m2-K]
    1.5,                     !- Ratio of Divider-Edge Glass Conductance to Center-Of-Glass Conductance
    0.8,                     !- Divider Solar Absorptance
    0.8,                     !- Divider Visible Absorptance
    0.9,                     !- Divider Thermal Hemispherical Emissivity
    0.7,                     !- Outside Reveal Solar Absorptance
    0,   !- InsideSillDepth [m]
    0.6,                     !- Inside Sill Solar Absorptance
    0,   !- InsideRevealDepth [m]
    0.5;                     !- Inside Reveal Solar Absorptance


WindowShadingControl,
Zone_0:f3:w0_ShadingControl,                                          !- Name of shading control
Zone_0,                                          !- Zone Name
1,                       !-Shading Control Sequence Number
ExteriorShade,                                 !- Shading type
,                                              !- Construction with Shading Name
OnIfHighSolarOnWindow,   !- @Zone_0:f3:w0-ShadingControlType@
AllOn,   !- @Zone_0:f3:w0-ShadingSystemAvailibilitySchedule@
180,   !- @Zone_0:f3:w0-ShadingSystemSetPoint@
  Yes,                                           !- Shading control is scheduled
  No,                                            !- Glare control is active
Zone_0:f3:w0_Shade,                              !- Material name of shading device
  FixedSlatAngle,                                !- Type of slat angle control
  ,                                              !- Slat angle schedule name
  0,                                             !- Setpoint 2
, !-Daylighting Control Object Name
Sequential, !-Multiple Surface Control Type
Zone_0:f3:w0; !-Fenestration Surface 1 Name

WindowMaterial:Shade,
  Zone_0:f3:w0_Shade, !- Name
  0.5,   !- @Zone_0:f3:w0-ShadingSystemTransmittanceSolar@
  0.49, !- Solar Reflectance
  0.5,   !- @Zone_0:f3:w0-ShadingSystemTransmittanceVisible@
  0.49, !- Visible reflectance
  0.9, !- Thermal Hemispherical Emissivity
  0.0, !- Infrared Transmittance 
  0.003,   !- @Zone_0:f3:w0-ShadingThickness@ [m]
  0.1,   !- @Zone_0:f3:w0-ShadingConductivity@ [W/m-K]
  0.05,   !- @Zone_0:f3:w0-ShadeGlassDistance@ [m]
  1,   !- Top opening multiplier
  1,   !- Bottom opening multiplier
  1,   !- Left-side opening multiplier
  1,   !- Right-side opening multiplier
  0.0; !- Air flow permeability



! FACE NORMAL  0.9999985647176785 0.0016942734676275227 -0
BuildingSurface:Detailed,!-Type
Zone_0:f4, !-Name
Wall,                    !-Surface Type
90.1-2019 Nonresidential CZ 0 Exterior Wall (Mass),                       !-Construction Name
Zone_0,            !-Zone Name
,            !-Space Name
Outdoors,                !-Outside Boundary Condition
,                        !-Outside Boundary Condition Object
SunExposed,              !-Sun Exposure
WindExposed,             !-Wind Exposure
Autocalculate,                      !-View Factor to Ground
4,                       !-Number of Vertices

137.9540, 18.4817, 12.6428,  !- X,Y,Z ==> Vertex
137.9537, 18.6558, 12.6428,  !- X,Y,Z ==> Vertex
137.9537, 18.6558, 15.2628,  !- X,Y,Z ==> Vertex
137.9540, 18.4817, 15.2628;  !- X,Y,Z ==> Vertex


FenestrationSurface:Detailed,
Zone_0:f4:w0, !-Name
Window,                  !- Surface Type
DoublePaneClr,   !- @Zone_0:f4:w0-Construction@
Zone_0:f4, !- Building Surface Name
,                        !- Outside Boundary Condition Object
Autocalculate,                      !- View Factor to Ground
Zone_0:f4:w0Frame,                       !- Frame and Divider Name
1,                       !- Multiplier
4,                       !-Number of Vertices

137.9539, 18.5326, 12.6936,  !- X,Y,Z ==> Vertex
137.9538, 18.6050, 12.6936,  !- X,Y,Z ==> Vertex
137.9538, 18.6050, 15.2120,  !- X,Y,Z ==> Vertex
137.9539, 18.5326, 15.2120;  !- X,Y,Z ==> Vertex

WindowProperty:FrameAndDivider,
    Zone_0:f4:w0Frame,    !- Name
    0.05,   !- Width [m]
    0.01,   !- FrameOutsideProjection [m]
    0.01,   !- FrameInsideProjection [m]
    6,   !- FrameConductance [W/m2-K]
    1.5,   !- Ratio of Frame-Edge Glass Conductance to Center-Of-Glass Conductance
    0.8,                     !- Frame Solar Absorptance
    0.8,                     !- Frame Visible Absorptance
    0.9,                     !- Frame Thermal Hemispherical Emissivity
    DividedLite,             !- Divider Type
    0,   !- DividerWidth [m]
    0,                       !- Number of Horizontal Dividers
    0,                       !- Number of Vertical Dividers
    0.03,                    !- Divider Outside Projection [m]
    0.03,                    !- Divider Inside Projection [m]
    6,                     !- Divider Conductance [W/m2-K]
    1.5,                     !- Ratio of Divider-Edge Glass Conductance to Center-Of-Glass Conductance
    0.8,                     !- Divider Solar Absorptance
    0.8,                     !- Divider Visible Absorptance
    0.9,                     !- Divider Thermal Hemispherical Emissivity
    0.7,                     !- Outside Reveal Solar Absorptance
    0,   !- InsideSillDepth [m]
    0.6,                     !- Inside Sill Solar Absorptance
    0,   !- InsideRevealDepth [m]
    0.5;                     !- Inside Reveal Solar Absorptance


WindowShadingControl,
Zone_0:f4:w0_ShadingControl,                                          !- Name of shading control
Zone_0,                                          !- Zone Name
1,                       !-Shading Control Sequence Number
ExteriorShade,                                 !- Shading type
,                                              !- Construction with Shading Name
OnIfHighSolarOnWindow,   !- @Zone_0:f4:w0-ShadingControlType@
AllOn,   !- @Zone_0:f4:w0-ShadingSystemAvailibilitySchedule@
180,   !- @Zone_0:f4:w0-ShadingSystemSetPoint@
  Yes,                                           !- Shading control is scheduled
  No,                                            !- Glare control is active
Zone_0:f4:w0_Shade,                              !- Material name of shading device
  FixedSlatAngle,                                !- Type of slat angle control
  ,                                              !- Slat angle schedule name
  0,                                             !- Setpoint 2
, !-Daylighting Control Object Name
Sequential, !-Multiple Surface Control Type
Zone_0:f4:w0; !-Fenestration Surface 1 Name

WindowMaterial:Shade,
  Zone_0:f4:w0_Shade, !- Name
  0.5,   !- @Zone_0:f4:w0-ShadingSystemTransmittanceSolar@
  0.49, !- Solar Reflectance
  0.5,   !- @Zone_0:f4:w0-ShadingSystemTransmittanceVisible@
  0.49, !- Visible reflectance
  0.9, !- Thermal Hemispherical Emissivity
  0.0, !- Infrared Transmittance 
  0.003,   !- @Zone_0:f4:w0-ShadingThickness@ [m]
  0.1,   !- @Zone_0:f4:w0-ShadingConductivity@ [W/m-K]
  0.05,   !- @Zone_0:f4:w0-ShadeGlassDistance@ [m]
  1,   !- Top opening multiplier
  1,   !- Bottom opening multiplier
  1,   !- Left-side opening multiplier
  1,   !- Right-side opening multiplier
  0.0; !- Air flow permeability



! FACE NORMAL  0.999999998561734 -5.363331026733436E-05 -0
BuildingSurface:Detailed,!-Type
Zone_0:f5, !-Name
Wall,                    !-Surface Type
90.1-2019 Nonresidential CZ 0 Exterior Wall (Mass),                       !-Construction Name
Zone_0,            !-Zone Name
,            !-Space Name
Outdoors,                !-Outside Boundary Condition
,                        !-Outside Boundary Condition Object
SunExposed,              !-Sun Exposure
WindExposed,             !-Wind Exposure
Autocalculate,                      !-View Factor to Ground
4,                       !-Number of Vertices

137.9537, 18.6558, 12.6428,  !- X,Y,Z ==> Vertex
137.9540, 24.1543, 12.6429,  !- X,Y,Z ==> Vertex
137.9540, 24.1543, 15.2629,  !- X,Y,Z ==> Vertex
137.9537, 18.6558, 15.2628;  !- X,Y,Z ==> Vertex


FenestrationSurface:Detailed,
Zone_0:f5:w0, !-Name
Window,                  !- Surface Type
DoublePaneClr,   !- @Zone_0:f5:w0-Construction@
Zone_0:f5, !- Building Surface Name
,                        !- Outside Boundary Condition Object
Autocalculate,                      !- View Factor to Ground
Zone_0:f5:w0Frame,                       !- Frame and Divider Name
1,                       !- Multiplier
4,                       !-Number of Vertices

137.9537, 19.2860, 13.2730,  !- X,Y,Z ==> Vertex
137.9539, 23.5241, 13.2730,  !- X,Y,Z ==> Vertex
137.9539, 23.5241, 14.6327,  !- X,Y,Z ==> Vertex
137.9537, 19.2860, 14.6326;  !- X,Y,Z ==> Vertex

WindowProperty:FrameAndDivider,
    Zone_0:f5:w0Frame,    !- Name
    0.05,   !- Width [m]
    0.01,   !- FrameOutsideProjection [m]
    0.01,   !- FrameInsideProjection [m]
    6,   !- FrameConductance [W/m2-K]
    1.5,   !- Ratio of Frame-Edge Glass Conductance to Center-Of-Glass Conductance
    0.8,                     !- Frame Solar Absorptance
    0.8,                     !- Frame Visible Absorptance
    0.9,                     !- Frame Thermal Hemispherical Emissivity
    DividedLite,             !- Divider Type
    0,   !- DividerWidth [m]
    0,                       !- Number of Horizontal Dividers
    0,                       !- Number of Vertical Dividers
    0.03,                    !- Divider Outside Projection [m]
    0.03,                    !- Divider Inside Projection [m]
    6,                     !- Divider Conductance [W/m2-K]
    1.5,                     !- Ratio of Divider-Edge Glass Conductance to Center-Of-Glass Conductance
    0.8,                     !- Divider Solar Absorptance
    0.8,                     !- Divider Visible Absorptance
    0.9,                     !- Divider Thermal Hemispherical Emissivity
    0.7,                     !- Outside Reveal Solar Absorptance
    0,   !- InsideSillDepth [m]
    0.6,                     !- Inside Sill Solar Absorptance
    0,   !- InsideRevealDepth [m]
    0.5;                     !- Inside Reveal Solar Absorptance


WindowShadingControl,
Zone_0:f5:w0_ShadingControl,                                          !- Name of shading control
Zone_0,                                          !- Zone Name
1,                       !-Shading Control Sequence Number
ExteriorShade,                                 !- Shading type
,                                              !- Construction with Shading Name
OnIfHighSolarOnWindow,   !- @Zone_0:f5:w0-ShadingControlType@
AllOn,   !- @Zone_0:f5:w0-ShadingSystemAvailibilitySchedule@
180,   !- @Zone_0:f5:w0-ShadingSystemSetPoint@
  Yes,                                           !- Shading control is scheduled
  No,                                            !- Glare control is active
Zone_0:f5:w0_Shade,                              !- Material name of shading device
  FixedSlatAngle,                                !- Type of slat angle control
  ,                                              !- Slat angle schedule name
  0,                                             !- Setpoint 2
, !-Daylighting Control Object Name
Sequential, !-Multiple Surface Control Type
Zone_0:f5:w0; !-Fenestration Surface 1 Name

WindowMaterial:Shade,
  Zone_0:f5:w0_Shade, !- Name
  0.5,   !- @Zone_0:f5:w0-ShadingSystemTransmittanceSolar@
  0.49, !- Solar Reflectance
  0.5,   !- @Zone_0:f5:w0-ShadingSystemTransmittanceVisible@
  0.49, !- Visible reflectance
  0.9, !- Thermal Hemispherical Emissivity
  0.0, !- Infrared Transmittance 
  0.003,   !- @Zone_0:f5:w0-ShadingThickness@ [m]
  0.1,   !- @Zone_0:f5:w0-ShadingConductivity@ [W/m-K]
  0.05,   !- @Zone_0:f5:w0-ShadeGlassDistance@ [m]
  1,   !- Top opening multiplier
  1,   !- Bottom opening multiplier
  1,   !- Left-side opening multiplier
  1,   !- Right-side opening multiplier
  0.0; !- Air flow permeability



! FACE NORMAL  -0.00035759043930251453 0.9999999360645367 -0
BuildingSurface:Detailed,!-Type
Zone_0:f6, !-Name
Wall,                    !-Surface Type
90.1-2019 Nonresidential CZ 0 Exterior Wall (Mass),                       !-Construction Name
Zone_0,            !-Zone Name
,            !-Space Name
Outdoors,                !-Outside Boundary Condition
,                        !-Outside Boundary Condition Object
SunExposed,              !-Sun Exposure
WindExposed,             !-Wind Exposure
Autocalculate,                      !-View Factor to Ground
4,                       !-Number of Vertices

137.9540, 24.1543, 12.6429,  !- X,Y,Z ==> Vertex
136.4551, 24.1538, 12.6428,  !- X,Y,Z ==> Vertex
136.4551, 24.1538, 15.2628,  !- X,Y,Z ==> Vertex
137.9540, 24.1543, 15.2629;  !- X,Y,Z ==> Vertex


FenestrationSurface:Detailed,
Zone_0:f6:w0, !-Name
Window,                  !- Surface Type
DoublePaneClr,   !- @Zone_0:f6:w0-Construction@
Zone_0:f6, !- Building Surface Name
,                        !- Outside Boundary Condition Object
Autocalculate,                      !- View Factor to Ground
Zone_0:f6:w0Frame,                       !- Frame and Divider Name
1,                       !- Multiplier
4,                       !-Number of Vertices

137.6107, 24.1542, 12.9861,  !- X,Y,Z ==> Vertex
136.7984, 24.1539, 12.9860,  !- X,Y,Z ==> Vertex
136.7984, 24.1539, 14.9196,  !- X,Y,Z ==> Vertex
137.6107, 24.1542, 14.9196;  !- X,Y,Z ==> Vertex

WindowProperty:FrameAndDivider,
    Zone_0:f6:w0Frame,    !- Name
    0.05,   !- Width [m]
    0.01,   !- FrameOutsideProjection [m]
    0.01,   !- FrameInsideProjection [m]
    6,   !- FrameConductance [W/m2-K]
    1.5,   !- Ratio of Frame-Edge Glass Conductance to Center-Of-Glass Conductance
    0.8,                     !- Frame Solar Absorptance
    0.8,                     !- Frame Visible Absorptance
    0.9,                     !- Frame Thermal Hemispherical Emissivity
    DividedLite,             !- Divider Type
    0,   !- DividerWidth [m]
    0,                       !- Number of Horizontal Dividers
    0,                       !- Number of Vertical Dividers
    0.03,                    !- Divider Outside Projection [m]
    0.03,                    !- Divider Inside Projection [m]
    6,                     !- Divider Conductance [W/m2-K]
    1.5,                     !- Ratio of Divider-Edge Glass Conductance to Center-Of-Glass Conductance
    0.8,                     !- Divider Solar Absorptance
    0.8,                     !- Divider Visible Absorptance
    0.9,                     !- Divider Thermal Hemispherical Emissivity
    0.7,                     !- Outside Reveal Solar Absorptance
    0,   !- InsideSillDepth [m]
    0.6,                     !- Inside Sill Solar Absorptance
    0,   !- InsideRevealDepth [m]
    0.5;                     !- Inside Reveal Solar Absorptance


WindowShadingControl,
Zone_0:f6:w0_ShadingControl,                                          !- Name of shading control
Zone_0,                                          !- Zone Name
1,                       !-Shading Control Sequence Number
ExteriorShade,                                 !- Shading type
,                                              !- Construction with Shading Name
OnIfHighSolarOnWindow,   !- @Zone_0:f6:w0-ShadingControlType@
AllOn,   !- @Zone_0:f6:w0-ShadingSystemAvailibilitySchedule@
180,   !- @Zone_0:f6:w0-ShadingSystemSetPoint@
  Yes,                                           !- Shading control is scheduled
  No,                                            !- Glare control is active
Zone_0:f6:w0_Shade,                              !- Material name of shading device
  FixedSlatAngle,                                !- Type of slat angle control
  ,                                              !- Slat angle schedule name
  0,                                             !- Setpoint 2
, !-Daylighting Control Object Name
Sequential, !-Multiple Surface Control Type
Zone_0:f6:w0; !-Fenestration Surface 1 Name

WindowMaterial:Shade,
  Zone_0:f6:w0_Shade, !- Name
  0.5,   !- @Zone_0:f6:w0-ShadingSystemTransmittanceSolar@
  0.49, !- Solar Reflectance
  0.5,   !- @Zone_0:f6:w0-ShadingSystemTransmittanceVisible@
  0.49, !- Visible reflectance
  0.9, !- Thermal Hemispherical Emissivity
  0.0, !- Infrared Transmittance 
  0.003,   !- @Zone_0:f6:w0-ShadingThickness@ [m]
  0.1,   !- @Zone_0:f6:w0-ShadingConductivity@ [W/m-K]
  0.05,   !- @Zone_0:f6:w0-ShadeGlassDistance@ [m]
  1,   !- Top opening multiplier
  1,   !- Bottom opening multiplier
  1,   !- Left-side opening multiplier
  1,   !- Right-side opening multiplier
  0.0; !- Air flow permeability



! FACE NORMAL  0.9999999169835061 0.0004074714482699937 -0
BuildingSurface:Detailed,!-Type
Zone_0:f7, !-Name
Wall,                    !-Surface Type
90.1-2019 Nonresidential CZ 0 Exterior Wall (Mass),                       !-Construction Name
Zone_0,            !-Zone Name
,            !-Space Name
Outdoors,                !-Outside Boundary Condition
,                        !-Outside Boundary Condition Object
SunExposed,              !-Sun Exposure
WindExposed,             !-Wind Exposure
Autocalculate,                      !-View Factor to Ground
4,                       !-Number of Vertices

136.4551, 24.1538, 12.6428,  !- X,Y,Z ==> Vertex
136.4535, 28.1542, 12.6428,  !- X,Y,Z ==> Vertex
136.4535, 28.1542, 15.2628,  !- X,Y,Z ==> Vertex
136.4551, 24.1538, 15.2628;  !- X,Y,Z ==> Vertex


FenestrationSurface:Detailed,
Zone_0:f7:w0, !-Name
Window,                  !- Surface Type
DoublePaneClr,   !- @Zone_0:f7:w0-Construction@
Zone_0:f7, !- Building Surface Name
,                        !- Outside Boundary Condition Object
Autocalculate,                      !- View Factor to Ground
Zone_0:f7:w0Frame,                       !- Frame and Divider Name
1,                       !- Multiplier
4,                       !-Number of Vertices

136.4549, 24.7285, 13.2175,  !- X,Y,Z ==> Vertex
136.4537, 27.5795, 13.2175,  !- X,Y,Z ==> Vertex
136.4537, 27.5795, 14.6881,  !- X,Y,Z ==> Vertex
136.4549, 24.7285, 14.6881;  !- X,Y,Z ==> Vertex

WindowProperty:FrameAndDivider,
    Zone_0:f7:w0Frame,    !- Name
    0.05,   !- Width [m]
    0.01,   !- FrameOutsideProjection [m]
    0.01,   !- FrameInsideProjection [m]
    6,   !- FrameConductance [W/m2-K]
    1.5,   !- Ratio of Frame-Edge Glass Conductance to Center-Of-Glass Conductance
    0.8,                     !- Frame Solar Absorptance
    0.8,                     !- Frame Visible Absorptance
    0.9,                     !- Frame Thermal Hemispherical Emissivity
    DividedLite,             !- Divider Type
    0,   !- DividerWidth [m]
    0,                       !- Number of Horizontal Dividers
    0,                       !- Number of Vertical Dividers
    0.03,                    !- Divider Outside Projection [m]
    0.03,                    !- Divider Inside Projection [m]
    6,                     !- Divider Conductance [W/m2-K]
    1.5,                     !- Ratio of Divider-Edge Glass Conductance to Center-Of-Glass Conductance
    0.8,                     !- Divider Solar Absorptance
    0.8,                     !- Divider Visible Absorptance
    0.9,                     !- Divider Thermal Hemispherical Emissivity
    0.7,                     !- Outside Reveal Solar Absorptance
    0,   !- InsideSillDepth [m]
    0.6,                     !- Inside Sill Solar Absorptance
    0,   !- InsideRevealDepth [m]
    0.5;                     !- Inside Reveal Solar Absorptance


WindowShadingControl,
Zone_0:f7:w0_ShadingControl,                                          !- Name of shading control
Zone_0,                                          !- Zone Name
1,                       !-Shading Control Sequence Number
ExteriorShade,                                 !- Shading type
,                                              !- Construction with Shading Name
OnIfHighSolarOnWindow,   !- @Zone_0:f7:w0-ShadingControlType@
AllOn,   !- @Zone_0:f7:w0-ShadingSystemAvailibilitySchedule@
180,   !- @Zone_0:f7:w0-ShadingSystemSetPoint@
  Yes,                                           !- Shading control is scheduled
  No,                                            !- Glare control is active
Zone_0:f7:w0_Shade,                              !- Material name of shading device
  FixedSlatAngle,                                !- Type of slat angle control
  ,                                              !- Slat angle schedule name
  0,                                             !- Setpoint 2
, !-Daylighting Control Object Name
Sequential, !-Multiple Surface Control Type
Zone_0:f7:w0; !-Fenestration Surface 1 Name

WindowMaterial:Shade,
  Zone_0:f7:w0_Shade, !- Name
  0.5,   !- @Zone_0:f7:w0-ShadingSystemTransmittanceSolar@
  0.49, !- Solar Reflectance
  0.5,   !- @Zone_0:f7:w0-ShadingSystemTransmittanceVisible@
  0.49, !- Visible reflectance
  0.9, !- Thermal Hemispherical Emissivity
  0.0, !- Infrared Transmittance 
  0.003,   !- @Zone_0:f7:w0-ShadingThickness@ [m]
  0.1,   !- @Zone_0:f7:w0-ShadingConductivity@ [W/m-K]
  0.05,   !- @Zone_0:f7:w0-ShadeGlassDistance@ [m]
  1,   !- Top opening multiplier
  1,   !- Bottom opening multiplier
  1,   !- Left-side opening multiplier
  1,   !- Right-side opening multiplier
  0.0; !- Air flow permeability



! FACE NORMAL  -0.0012093476303985413 0.9999992687388871 -0
BuildingSurface:Detailed,!-Type
Zone_0:f8, !-Name
Wall,                    !-Surface Type
90.1-2019 Nonresidential CZ 0 Exterior Wall (Mass),                       !-Construction Name
Zone_0,            !-Zone Name
,            !-Space Name
Outdoors,                !-Outside Boundary Condition
,                        !-Outside Boundary Condition Object
SunExposed,              !-Sun Exposure
WindExposed,             !-Wind Exposure
Autocalculate,                      !-View Factor to Ground
4,                       !-Number of Vertices

136.4535, 28.1542, 12.6428,  !- X,Y,Z ==> Vertex
132.0081, 28.1489, 12.6428,  !- X,Y,Z ==> Vertex
132.0081, 28.1489, 15.2628,  !- X,Y,Z ==> Vertex
136.4535, 28.1542, 15.2628;  !- X,Y,Z ==> Vertex


FenestrationSurface:Detailed,
Zone_0:f8:w0, !-Name
Window,                  !- Surface Type
DoublePaneClr,   !- @Zone_0:f8:w0-Construction@
Zone_0:f8, !- Building Surface Name
,                        !- Outside Boundary Condition Object
Autocalculate,                      !- View Factor to Ground
Zone_0:f8:w0Frame,                       !- Frame and Divider Name
1,                       !- Multiplier
4,                       !-Number of Vertices

135.8589, 28.1535, 13.2374,  !- X,Y,Z ==> Vertex
132.6027, 28.1496, 13.2374,  !- X,Y,Z ==> Vertex
132.6027, 28.1496, 14.6682,  !- X,Y,Z ==> Vertex
135.8589, 28.1535, 14.6682;  !- X,Y,Z ==> Vertex

WindowProperty:FrameAndDivider,
    Zone_0:f8:w0Frame,    !- Name
    0.05,   !- Width [m]
    0.01,   !- FrameOutsideProjection [m]
    0.01,   !- FrameInsideProjection [m]
    6,   !- FrameConductance [W/m2-K]
    1.5,   !- Ratio of Frame-Edge Glass Conductance to Center-Of-Glass Conductance
    0.8,                     !- Frame Solar Absorptance
    0.8,                     !- Frame Visible Absorptance
    0.9,                     !- Frame Thermal Hemispherical Emissivity
    DividedLite,             !- Divider Type
    0,   !- DividerWidth [m]
    0,                       !- Number of Horizontal Dividers
    0,                       !- Number of Vertical Dividers
    0.03,                    !- Divider Outside Projection [m]
    0.03,                    !- Divider Inside Projection [m]
    6,                     !- Divider Conductance [W/m2-K]
    1.5,                     !- Ratio of Divider-Edge Glass Conductance to Center-Of-Glass Conductance
    0.8,                     !- Divider Solar Absorptance
    0.8,                     !- Divider Visible Absorptance
    0.9,                     !- Divider Thermal Hemispherical Emissivity
    0.7,                     !- Outside Reveal Solar Absorptance
    0,   !- InsideSillDepth [m]
    0.6,                     !- Inside Sill Solar Absorptance
    0,   !- InsideRevealDepth [m]
    0.5;                     !- Inside Reveal Solar Absorptance


WindowShadingControl,
Zone_0:f8:w0_ShadingControl,                                          !- Name of shading control
Zone_0,                                          !- Zone Name
1,                       !-Shading Control Sequence Number
ExteriorShade,                                 !- Shading type
,                                              !- Construction with Shading Name
OnIfHighSolarOnWindow,   !- @Zone_0:f8:w0-ShadingControlType@
AllOn,   !- @Zone_0:f8:w0-ShadingSystemAvailibilitySchedule@
180,   !- @Zone_0:f8:w0-ShadingSystemSetPoint@
  Yes,                                           !- Shading control is scheduled
  No,                                            !- Glare control is active
Zone_0:f8:w0_Shade,                              !- Material name of shading device
  FixedSlatAngle,                                !- Type of slat angle control
  ,                                              !- Slat angle schedule name
  0,                                             !- Setpoint 2
, !-Daylighting Control Object Name
Sequential, !-Multiple Surface Control Type
Zone_0:f8:w0; !-Fenestration Surface 1 Name

WindowMaterial:Shade,
  Zone_0:f8:w0_Shade, !- Name
  0.5,   !- @Zone_0:f8:w0-ShadingSystemTransmittanceSolar@
  0.49, !- Solar Reflectance
  0.5,   !- @Zone_0:f8:w0-ShadingSystemTransmittanceVisible@
  0.49, !- Visible reflectance
  0.9, !- Thermal Hemispherical Emissivity
  0.0, !- Infrared Transmittance 
  0.003,   !- @Zone_0:f8:w0-ShadingThickness@ [m]
  0.1,   !- @Zone_0:f8:w0-ShadingConductivity@ [W/m-K]
  0.05,   !- @Zone_0:f8:w0-ShadeGlassDistance@ [m]
  1,   !- Top opening multiplier
  1,   !- Bottom opening multiplier
  1,   !- Left-side opening multiplier
  1,   !- Right-side opening multiplier
  0.0; !- Air flow permeability



! FACE NORMAL  -0.9999999950860675 -9.913558937819827E-05 0
BuildingSurface:Detailed,!-Type
Zone_0:f9, !-Name
Wall,                    !-Surface Type
90.1-2019 Nonresidential CZ 0 Exterior Wall (Mass),                       !-Construction Name
Zone_0,            !-Zone Name
,            !-Space Name
Outdoors,                !-Outside Boundary Condition
,                        !-Outside Boundary Condition Object
SunExposed,              !-Sun Exposure
WindExposed,             !-Wind Exposure
Autocalculate,                      !-View Factor to Ground
4,                       !-Number of Vertices

132.0081, 28.1489, 12.6428,  !- X,Y,Z ==> Vertex
132.0081, 19.4648, 12.6428,  !- X,Y,Z ==> Vertex
132.0081, 19.4648, 15.2628,  !- X,Y,Z ==> Vertex
132.0081, 28.1489, 15.2628;  !- X,Y,Z ==> Vertex


! FACE NORMAL  -0 1 -0
BuildingSurface:Detailed,!-Type
Zone_0:f10, !-Name
Wall,                    !-Surface Type
90.1-2019 Nonresidential CZ 0 Exterior Wall (Mass),                       !-Construction Name
Zone_0,            !-Zone Name
,            !-Space Name
Outdoors,                !-Outside Boundary Condition
,                        !-Outside Boundary Condition Object
SunExposed,              !-Sun Exposure
WindExposed,             !-Wind Exposure
Autocalculate,                      !-View Factor to Ground
4,                       !-Number of Vertices

132.0081, 19.4648, 12.6428,  !- X,Y,Z ==> Vertex
127.0387, 19.4648, 12.6428,  !- X,Y,Z ==> Vertex
127.0387, 19.4648, 15.2628,  !- X,Y,Z ==> Vertex
132.0081, 19.4648, 15.2628;  !- X,Y,Z ==> Vertex


FenestrationSurface:Detailed,
Zone_0:f10:w0, !-Name
Window,                  !- Surface Type
DoublePaneClr,   !- @Zone_0:f10:w0-Construction@
Zone_0:f10, !- Building Surface Name
,                        !- Outside Boundary Condition Object
Autocalculate,                      !- View Factor to Ground
Zone_0:f10:w0Frame,                       !- Frame and Divider Name
1,                       !- Multiplier
4,                       !-Number of Vertices

131.3940, 19.4648, 13.2568,  !- X,Y,Z ==> Vertex
127.6527, 19.4648, 13.2568,  !- X,Y,Z ==> Vertex
127.6527, 19.4648, 14.6488,  !- X,Y,Z ==> Vertex
131.3940, 19.4648, 14.6488;  !- X,Y,Z ==> Vertex

WindowProperty:FrameAndDivider,
    Zone_0:f10:w0Frame,    !- Name
    0.05,   !- Width [m]
    0.01,   !- FrameOutsideProjection [m]
    0.01,   !- FrameInsideProjection [m]
    6,   !- FrameConductance [W/m2-K]
    1.5,   !- Ratio of Frame-Edge Glass Conductance to Center-Of-Glass Conductance
    0.8,                     !- Frame Solar Absorptance
    0.8,                     !- Frame Visible Absorptance
    0.9,                     !- Frame Thermal Hemispherical Emissivity
    DividedLite,             !- Divider Type
    0,   !- DividerWidth [m]
    0,                       !- Number of Horizontal Dividers
    0,                       !- Number of Vertical Dividers
    0.03,                    !- Divider Outside Projection [m]
    0.03,                    !- Divider Inside Projection [m]
    6,                     !- Divider Conductance [W/m2-K]
    1.5,                     !- Ratio of Divider-Edge Glass Conductance to Center-Of-Glass Conductance
    0.8,                     !- Divider Solar Absorptance
    0.8,                     !- Divider Visible Absorptance
    0.9,                     !- Divider Thermal Hemispherical Emissivity
    0.7,                     !- Outside Reveal Solar Absorptance
    0,   !- InsideSillDepth [m]
    0.6,                     !- Inside Sill Solar Absorptance
    0,   !- InsideRevealDepth [m]
    0.5;                     !- Inside Reveal Solar Absorptance


WindowShadingControl,
Zone_0:f10:w0_ShadingControl,                                          !- Name of shading control
Zone_0,                                          !- Zone Name
1,                       !-Shading Control Sequence Number
ExteriorShade,                                 !- Shading type
,                                              !- Construction with Shading Name
OnIfHighSolarOnWindow,   !- @Zone_0:f10:w0-ShadingControlType@
AllOn,   !- @Zone_0:f10:w0-ShadingSystemAvailibilitySchedule@
180,   !- @Zone_0:f10:w0-ShadingSystemSetPoint@
  Yes,                                           !- Shading control is scheduled
  No,                                            !- Glare control is active
Zone_0:f10:w0_Shade,                              !- Material name of shading device
  FixedSlatAngle,                                !- Type of slat angle control
  ,                                              !- Slat angle schedule name
  0,                                             !- Setpoint 2
, !-Daylighting Control Object Name
Sequential, !-Multiple Surface Control Type
Zone_0:f10:w0; !-Fenestration Surface 1 Name

WindowMaterial:Shade,
  Zone_0:f10:w0_Shade, !- Name
  0.5,   !- @Zone_0:f10:w0-ShadingSystemTransmittanceSolar@
  0.49, !- Solar Reflectance
  0.5,   !- @Zone_0:f10:w0-ShadingSystemTransmittanceVisible@
  0.49, !- Visible reflectance
  0.9, !- Thermal Hemispherical Emissivity
  0.0, !- Infrared Transmittance 
  0.003,   !- @Zone_0:f10:w0-ShadingThickness@ [m]
  0.1,   !- @Zone_0:f10:w0-ShadingConductivity@ [W/m-K]
  0.05,   !- @Zone_0:f10:w0-ShadeGlassDistance@ [m]
  1,   !- Top opening multiplier
  1,   !- Bottom opening multiplier
  1,   !- Left-side opening multiplier
  1,   !- Right-side opening multiplier
  0.0; !- Air flow permeability



! FACE NORMAL  1 -0 -0
BuildingSurface:Detailed,!-Type
Zone_0:f11, !-Name
Wall,                    !-Surface Type
90.1-2019 Nonresidential CZ 0 Exterior Wall (Mass),                       !-Construction Name
Zone_0,            !-Zone Name
,            !-Space Name
Outdoors,                !-Outside Boundary Condition
,                        !-Outside Boundary Condition Object
SunExposed,              !-Sun Exposure
WindExposed,             !-Wind Exposure
Autocalculate,                      !-View Factor to Ground
4,                       !-Number of Vertices

127.0387, 19.4648, 12.6428,  !- X,Y,Z ==> Vertex
127.0387, 21.6569, 12.6428,  !- X,Y,Z ==> Vertex
127.0387, 21.6569, 15.2628,  !- X,Y,Z ==> Vertex
127.0387, 19.4648, 15.2628;  !- X,Y,Z ==> Vertex


FenestrationSurface:Detailed,
Zone_0:f11:w0, !-Name
Window,                  !- Surface Type
DoublePaneClr,   !- @Zone_0:f11:w0-Construction@
Zone_0:f11, !- Building Surface Name
,                        !- Outside Boundary Condition Object
Autocalculate,                      !- View Factor to Ground
Zone_0:f11:w0Frame,                       !- Frame and Divider Name
1,                       !- Multiplier
4,                       !-Number of Vertices

127.0387, 19.9025, 13.0805,  !- X,Y,Z ==> Vertex
127.0387, 21.2192, 13.0805,  !- X,Y,Z ==> Vertex
127.0387, 21.2192, 14.8251,  !- X,Y,Z ==> Vertex
127.0387, 19.9025, 14.8251;  !- X,Y,Z ==> Vertex

WindowProperty:FrameAndDivider,
    Zone_0:f11:w0Frame,    !- Name
    0.05,   !- Width [m]
    0.01,   !- FrameOutsideProjection [m]
    0.01,   !- FrameInsideProjection [m]
    6,   !- FrameConductance [W/m2-K]
    1.5,   !- Ratio of Frame-Edge Glass Conductance to Center-Of-Glass Conductance
    0.8,                     !- Frame Solar Absorptance
    0.8,                     !- Frame Visible Absorptance
    0.9,                     !- Frame Thermal Hemispherical Emissivity
    DividedLite,             !- Divider Type
    0,   !- DividerWidth [m]
    0,                       !- Number of Horizontal Dividers
    0,                       !- Number of Vertical Dividers
    0.03,                    !- Divider Outside Projection [m]
    0.03,                    !- Divider Inside Projection [m]
    6,                     !- Divider Conductance [W/m2-K]
    1.5,                     !- Ratio of Divider-Edge Glass Conductance to Center-Of-Glass Conductance
    0.8,                     !- Divider Solar Absorptance
    0.8,                     !- Divider Visible Absorptance
    0.9,                     !- Divider Thermal Hemispherical Emissivity
    0.7,                     !- Outside Reveal Solar Absorptance
    0,   !- InsideSillDepth [m]
    0.6,                     !- Inside Sill Solar Absorptance
    0,   !- InsideRevealDepth [m]
    0.5;                     !- Inside Reveal Solar Absorptance


WindowShadingControl,
Zone_0:f11:w0_ShadingControl,                                          !- Name of shading control
Zone_0,                                          !- Zone Name
1,                       !-Shading Control Sequence Number
ExteriorShade,                                 !- Shading type
,                                              !- Construction with Shading Name
OnIfHighSolarOnWindow,   !- @Zone_0:f11:w0-ShadingControlType@
AllOn,   !- @Zone_0:f11:w0-ShadingSystemAvailibilitySchedule@
180,   !- @Zone_0:f11:w0-ShadingSystemSetPoint@
  Yes,                                           !- Shading control is scheduled
  No,                                            !- Glare control is active
Zone_0:f11:w0_Shade,                              !- Material name of shading device
  FixedSlatAngle,                                !- Type of slat angle control
  ,                                              !- Slat angle schedule name
  0,                                             !- Setpoint 2
, !-Daylighting Control Object Name
Sequential, !-Multiple Surface Control Type
Zone_0:f11:w0; !-Fenestration Surface 1 Name

WindowMaterial:Shade,
  Zone_0:f11:w0_Shade, !- Name
  0.5,   !- @Zone_0:f11:w0-ShadingSystemTransmittanceSolar@
  0.49, !- Solar Reflectance
  0.5,   !- @Zone_0:f11:w0-ShadingSystemTransmittanceVisible@
  0.49, !- Visible reflectance
  0.9, !- Thermal Hemispherical Emissivity
  0.0, !- Infrared Transmittance 
  0.003,   !- @Zone_0:f11:w0-ShadingThickness@ [m]
  0.1,   !- @Zone_0:f11:w0-ShadingConductivity@ [W/m-K]
  0.05,   !- @Zone_0:f11:w0-ShadeGlassDistance@ [m]
  1,   !- Top opening multiplier
  1,   !- Bottom opening multiplier
  1,   !- Left-side opening multiplier
  1,   !- Right-side opening multiplier
  0.0; !- Air flow permeability



! FACE NORMAL  -0.00034575394254362184 0.9999999402271038 -0
BuildingSurface:Detailed,!-Type
Zone_0:f12, !-Name
Wall,                    !-Surface Type
90.1-2019 Nonresidential CZ 0 Exterior Wall (Mass),                       !-Construction Name
Zone_0,            !-Zone Name
,            !-Space Name
Outdoors,                !-Outside Boundary Condition
,                        !-Outside Boundary Condition Object
SunExposed,              !-Sun Exposure
WindExposed,             !-Wind Exposure
Autocalculate,                      !-View Factor to Ground
4,                       !-Number of Vertices

127.0387, 21.6569, 12.6428,  !- X,Y,Z ==> Vertex
123.4900, 21.6557, 12.6428,  !- X,Y,Z ==> Vertex
123.4900, 21.6557, 15.2628,  !- X,Y,Z ==> Vertex
127.0387, 21.6569, 15.2628;  !- X,Y,Z ==> Vertex


FenestrationSurface:Detailed,
Zone_0:f12:w0, !-Name
Window,                  !- Surface Type
DoublePaneClr,   !- @Zone_0:f12:w0-Construction@
Zone_0:f12, !- Building Surface Name
,                        !- Outside Boundary Condition Object
Autocalculate,                      !- View Factor to Ground
Zone_0:f12:w0Frame,                       !- Frame and Divider Name
1,                       !- Multiplier
4,                       !-Number of Vertices

126.4883, 21.6567, 13.1932,  !- X,Y,Z ==> Vertex
124.0404, 21.6558, 13.1932,  !- X,Y,Z ==> Vertex
124.0404, 21.6558, 14.7124,  !- X,Y,Z ==> Vertex
126.4883, 21.6567, 14.7124;  !- X,Y,Z ==> Vertex

WindowProperty:FrameAndDivider,
    Zone_0:f12:w0Frame,    !- Name
    0.05,   !- Width [m]
    0.01,   !- FrameOutsideProjection [m]
    0.01,   !- FrameInsideProjection [m]
    6,   !- FrameConductance [W/m2-K]
    1.5,   !- Ratio of Frame-Edge Glass Conductance to Center-Of-Glass Conductance
    0.8,                     !- Frame Solar Absorptance
    0.8,                     !- Frame Visible Absorptance
    0.9,                     !- Frame Thermal Hemispherical Emissivity
    DividedLite,             !- Divider Type
    0,   !- DividerWidth [m]
    0,                       !- Number of Horizontal Dividers
    0,                       !- Number of Vertical Dividers
    0.03,                    !- Divider Outside Projection [m]
    0.03,                    !- Divider Inside Projection [m]
    6,                     !- Divider Conductance [W/m2-K]
    1.5,                     !- Ratio of Divider-Edge Glass Conductance to Center-Of-Glass Conductance
    0.8,                     !- Divider Solar Absorptance
    0.8,                     !- Divider Visible Absorptance
    0.9,                     !- Divider Thermal Hemispherical Emissivity
    0.7,                     !- Outside Reveal Solar Absorptance
    0,   !- InsideSillDepth [m]
    0.6,                     !- Inside Sill Solar Absorptance
    0,   !- InsideRevealDepth [m]
    0.5;                     !- Inside Reveal Solar Absorptance


WindowShadingControl,
Zone_0:f12:w0_ShadingControl,                                          !- Name of shading control
Zone_0,                                          !- Zone Name
1,                       !-Shading Control Sequence Number
ExteriorShade,                                 !- Shading type
,                                              !- Construction with Shading Name
OnIfHighSolarOnWindow,   !- @Zone_0:f12:w0-ShadingControlType@
AllOn,   !- @Zone_0:f12:w0-ShadingSystemAvailibilitySchedule@
180,   !- @Zone_0:f12:w0-ShadingSystemSetPoint@
  Yes,                                           !- Shading control is scheduled
  No,                                            !- Glare control is active
Zone_0:f12:w0_Shade,                              !- Material name of shading device
  FixedSlatAngle,                                !- Type of slat angle control
  ,                                              !- Slat angle schedule name
  0,                                             !- Setpoint 2
, !-Daylighting Control Object Name
Sequential, !-Multiple Surface Control Type
Zone_0:f12:w0; !-Fenestration Surface 1 Name

WindowMaterial:Shade,
  Zone_0:f12:w0_Shade, !- Name
  0.5,   !- @Zone_0:f12:w0-ShadingSystemTransmittanceSolar@
  0.49, !- Solar Reflectance
  0.5,   !- @Zone_0:f12:w0-ShadingSystemTransmittanceVisible@
  0.49, !- Visible reflectance
  0.9, !- Thermal Hemispherical Emissivity
  0.0, !- Infrared Transmittance 
  0.003,   !- @Zone_0:f12:w0-ShadingThickness@ [m]
  0.1,   !- @Zone_0:f12:w0-ShadingConductivity@ [W/m-K]
  0.05,   !- @Zone_0:f12:w0-ShadeGlassDistance@ [m]
  1,   !- Top opening multiplier
  1,   !- Bottom opening multiplier
  1,   !- Left-side opening multiplier
  1,   !- Right-side opening multiplier
  0.0; !- Air flow permeability



! FACE NORMAL  -0.9999998451849543 0.0005564441275570178 -0
BuildingSurface:Detailed,!-Type
Zone_0:f13, !-Name
Wall,                    !-Surface Type
90.1-2019 Nonresidential CZ 0 Exterior Wall (Mass),                       !-Construction Name
Zone_0,            !-Zone Name
,            !-Space Name
Outdoors,                !-Outside Boundary Condition
,                        !-Outside Boundary Condition Object
SunExposed,              !-Sun Exposure
WindExposed,             !-Wind Exposure
Autocalculate,                      !-View Factor to Ground
4,                       !-Number of Vertices

123.4900, 21.6557, 12.6428,  !- X,Y,Z ==> Vertex
123.4878, 17.6547, 12.6428,  !- X,Y,Z ==> Vertex
123.4878, 17.6547, 15.2628,  !- X,Y,Z ==> Vertex
123.4900, 21.6557, 15.2628;  !- X,Y,Z ==> Vertex


! FACE NORMAL  8.366516769921831E-15 -1 -0
BuildingSurface:Detailed,!-Type
Zone_0:f14, !-Name
Wall,                    !-Surface Type
90.1-2019 Nonresidential CZ 0 Exterior Wall (Mass),                       !-Construction Name
Zone_0,            !-Zone Name
,            !-Space Name
Outdoors,                !-Outside Boundary Condition
,                        !-Outside Boundary Condition Object
SunExposed,              !-Sun Exposure
WindExposed,             !-Wind Exposure
Autocalculate,                      !-View Factor to Ground
4,                       !-Number of Vertices

123.4878, 17.6547, 12.6428,  !- X,Y,Z ==> Vertex
126.8849, 17.6547, 12.6428,  !- X,Y,Z ==> Vertex
126.8849, 17.6547, 15.2628,  !- X,Y,Z ==> Vertex
123.4878, 17.6547, 15.2628;  !- X,Y,Z ==> Vertex


FenestrationSurface:Detailed,
Zone_0:f14:w0, !-Name
Window,                  !- Surface Type
DoublePaneClr,   !- @Zone_0:f14:w0-Construction@
Zone_0:f14, !- Building Surface Name
,                        !- Outside Boundary Condition Object
Autocalculate,                      !- View Factor to Ground
Zone_0:f14:w0Frame,                       !- Frame and Divider Name
1,                       !- Multiplier
4,                       !-Number of Vertices

124.1522, 17.6547, 13.3073,  !- X,Y,Z ==> Vertex
126.2204, 17.6547, 13.3073,  !- X,Y,Z ==> Vertex
126.2204, 17.6547, 14.5983,  !- X,Y,Z ==> Vertex
124.1522, 17.6547, 14.5983;  !- X,Y,Z ==> Vertex

WindowProperty:FrameAndDivider,
    Zone_0:f14:w0Frame,    !- Name
    0.05,   !- Width [m]
    0.01,   !- FrameOutsideProjection [m]
    0.01,   !- FrameInsideProjection [m]
    6,   !- FrameConductance [W/m2-K]
    1.5,   !- Ratio of Frame-Edge Glass Conductance to Center-Of-Glass Conductance
    0.8,                     !- Frame Solar Absorptance
    0.8,                     !- Frame Visible Absorptance
    0.9,                     !- Frame Thermal Hemispherical Emissivity
    DividedLite,             !- Divider Type
    0,   !- DividerWidth [m]
    0,                       !- Number of Horizontal Dividers
    0,                       !- Number of Vertical Dividers
    0.03,                    !- Divider Outside Projection [m]
    0.03,                    !- Divider Inside Projection [m]
    6,                     !- Divider Conductance [W/m2-K]
    1.5,                     !- Ratio of Divider-Edge Glass Conductance to Center-Of-Glass Conductance
    0.8,                     !- Divider Solar Absorptance
    0.8,                     !- Divider Visible Absorptance
    0.9,                     !- Divider Thermal Hemispherical Emissivity
    0.7,                     !- Outside Reveal Solar Absorptance
    0,   !- InsideSillDepth [m]
    0.6,                     !- Inside Sill Solar Absorptance
    0,   !- InsideRevealDepth [m]
    0.5;                     !- Inside Reveal Solar Absorptance


WindowShadingControl,
Zone_0:f14:w0_ShadingControl,                                          !- Name of shading control
Zone_0,                                          !- Zone Name
1,                       !-Shading Control Sequence Number
ExteriorShade,                                 !- Shading type
,                                              !- Construction with Shading Name
OnIfHighSolarOnWindow,   !- @Zone_0:f14:w0-ShadingControlType@
AllOn,   !- @Zone_0:f14:w0-ShadingSystemAvailibilitySchedule@
180,   !- @Zone_0:f14:w0-ShadingSystemSetPoint@
  Yes,                                           !- Shading control is scheduled
  No,                                            !- Glare control is active
Zone_0:f14:w0_Shade,                              !- Material name of shading device
  FixedSlatAngle,                                !- Type of slat angle control
  ,                                              !- Slat angle schedule name
  0,                                             !- Setpoint 2
, !-Daylighting Control Object Name
Sequential, !-Multiple Surface Control Type
Zone_0:f14:w0; !-Fenestration Surface 1 Name

WindowMaterial:Shade,
  Zone_0:f14:w0_Shade, !- Name
  0.5,   !- @Zone_0:f14:w0-ShadingSystemTransmittanceSolar@
  0.49, !- Solar Reflectance
  0.5,   !- @Zone_0:f14:w0-ShadingSystemTransmittanceVisible@
  0.49, !- Visible reflectance
  0.9, !- Thermal Hemispherical Emissivity
  0.0, !- Infrared Transmittance 
  0.003,   !- @Zone_0:f14:w0-ShadingThickness@ [m]
  0.1,   !- @Zone_0:f14:w0-ShadingConductivity@ [W/m-K]
  0.05,   !- @Zone_0:f14:w0-ShadeGlassDistance@ [m]
  1,   !- Top opening multiplier
  1,   !- Bottom opening multiplier
  1,   !- Left-side opening multiplier
  1,   !- Right-side opening multiplier
  0.0; !- Air flow permeability



! FACE NORMAL  -1 -0 -0
BuildingSurface:Detailed,!-Type
Zone_0:f15, !-Name
Wall,                    !-Surface Type
90.1-2019 Nonresidential CZ 0 Exterior Wall (Mass),                       !-Construction Name
Zone_0,            !-Zone Name
,            !-Space Name
Outdoors,                !-Outside Boundary Condition
,                        !-Outside Boundary Condition Object
SunExposed,              !-Sun Exposure
WindExposed,             !-Wind Exposure
Autocalculate,                      !-View Factor to Ground
4,                       !-Number of Vertices

126.8849, 17.6547, 12.6428,  !- X,Y,Z ==> Vertex
126.8849, 16.1325, 12.6428,  !- X,Y,Z ==> Vertex
126.8849, 16.1325, 15.2628,  !- X,Y,Z ==> Vertex
126.8849, 17.6547, 15.2628;  !- X,Y,Z ==> Vertex


! FACE NORMAL  -0 1 -0
BuildingSurface:Detailed,!-Type
Zone_0:f16, !-Name
Wall,                    !-Surface Type
90.1-2019 Nonresidential CZ 0 Exterior Wall (Mass),                       !-Construction Name
Zone_0,            !-Zone Name
,            !-Space Name
Outdoors,                !-Outside Boundary Condition
,                        !-Outside Boundary Condition Object
SunExposed,              !-Sun Exposure
WindExposed,             !-Wind Exposure
Autocalculate,                      !-View Factor to Ground
4,                       !-Number of Vertices

126.8849, 16.1325, 12.6428,  !- X,Y,Z ==> Vertex
125.5895, 16.1325, 12.6428,  !- X,Y,Z ==> Vertex
125.5895, 16.1325, 15.2628,  !- X,Y,Z ==> Vertex
126.8849, 16.1325, 15.2628;  !- X,Y,Z ==> Vertex


FenestrationSurface:Detailed,
Zone_0:f16:w0, !-Name
Window,                  !- Surface Type
DoublePaneClr,   !- @Zone_0:f16:w0-Construction@
Zone_0:f16, !- Building Surface Name
,                        !- Outside Boundary Condition Object
Autocalculate,                      !- View Factor to Ground
Zone_0:f16:w0Frame,                       !- Frame and Divider Name
1,                       !- Multiplier
4,                       !-Number of Vertices

126.5761, 16.1325, 12.9515,  !- X,Y,Z ==> Vertex
125.8982, 16.1325, 12.9515,  !- X,Y,Z ==> Vertex
125.8982, 16.1325, 14.9541,  !- X,Y,Z ==> Vertex
126.5761, 16.1325, 14.9541;  !- X,Y,Z ==> Vertex

WindowProperty:FrameAndDivider,
    Zone_0:f16:w0Frame,    !- Name
    0.05,   !- Width [m]
    0.01,   !- FrameOutsideProjection [m]
    0.01,   !- FrameInsideProjection [m]
    6,   !- FrameConductance [W/m2-K]
    1.5,   !- Ratio of Frame-Edge Glass Conductance to Center-Of-Glass Conductance
    0.8,                     !- Frame Solar Absorptance
    0.8,                     !- Frame Visible Absorptance
    0.9,                     !- Frame Thermal Hemispherical Emissivity
    DividedLite,             !- Divider Type
    0,   !- DividerWidth [m]
    0,                       !- Number of Horizontal Dividers
    0,                       !- Number of Vertical Dividers
    0.03,                    !- Divider Outside Projection [m]
    0.03,                    !- Divider Inside Projection [m]
    6,                     !- Divider Conductance [W/m2-K]
    1.5,                     !- Ratio of Divider-Edge Glass Conductance to Center-Of-Glass Conductance
    0.8,                     !- Divider Solar Absorptance
    0.8,                     !- Divider Visible Absorptance
    0.9,                     !- Divider Thermal Hemispherical Emissivity
    0.7,                     !- Outside Reveal Solar Absorptance
    0,   !- InsideSillDepth [m]
    0.6,                     !- Inside Sill Solar Absorptance
    0,   !- InsideRevealDepth [m]
    0.5;                     !- Inside Reveal Solar Absorptance


WindowShadingControl,
Zone_0:f16:w0_ShadingControl,                                          !- Name of shading control
Zone_0,                                          !- Zone Name
1,                       !-Shading Control Sequence Number
ExteriorShade,                                 !- Shading type
,                                              !- Construction with Shading Name
OnIfHighSolarOnWindow,   !- @Zone_0:f16:w0-ShadingControlType@
AllOn,   !- @Zone_0:f16:w0-ShadingSystemAvailibilitySchedule@
180,   !- @Zone_0:f16:w0-ShadingSystemSetPoint@
  Yes,                                           !- Shading control is scheduled
  No,                                            !- Glare control is active
Zone_0:f16:w0_Shade,                              !- Material name of shading device
  FixedSlatAngle,                                !- Type of slat angle control
  ,                                              !- Slat angle schedule name
  0,                                             !- Setpoint 2
, !-Daylighting Control Object Name
Sequential, !-Multiple Surface Control Type
Zone_0:f16:w0; !-Fenestration Surface 1 Name

WindowMaterial:Shade,
  Zone_0:f16:w0_Shade, !- Name
  0.5,   !- @Zone_0:f16:w0-ShadingSystemTransmittanceSolar@
  0.49, !- Solar Reflectance
  0.5,   !- @Zone_0:f16:w0-ShadingSystemTransmittanceVisible@
  0.49, !- Visible reflectance
  0.9, !- Thermal Hemispherical Emissivity
  0.0, !- Infrared Transmittance 
  0.003,   !- @Zone_0:f16:w0-ShadingThickness@ [m]
  0.1,   !- @Zone_0:f16:w0-ShadingConductivity@ [W/m-K]
  0.05,   !- @Zone_0:f16:w0-ShadeGlassDistance@ [m]
  1,   !- Top opening multiplier
  1,   !- Bottom opening multiplier
  1,   !- Left-side opening multiplier
  1,   !- Right-side opening multiplier
  0.0; !- Air flow permeability



! FACE NORMAL  -1 -1.589189814283455E-14 0
BuildingSurface:Detailed,!-Type
Zone_0:f17, !-Name
Wall,                    !-Surface Type
90.1-2019 Nonresidential CZ 0 Exterior Wall (Mass),                       !-Construction Name
Zone_0,            !-Zone Name
,            !-Space Name
Outdoors,                !-Outside Boundary Condition
,                        !-Outside Boundary Condition Object
SunExposed,              !-Sun Exposure
WindExposed,             !-Wind Exposure
Autocalculate,                      !-View Factor to Ground
4,                       !-Number of Vertices

125.5895, 16.1325, 12.6428,  !- X,Y,Z ==> Vertex
125.5895, 14.3440, 12.6428,  !- X,Y,Z ==> Vertex
125.5895, 14.3440, 15.2628,  !- X,Y,Z ==> Vertex
125.5895, 16.1325, 15.2628;  !- X,Y,Z ==> Vertex


! FACE NORMAL  -0 -1 0
BuildingSurface:Detailed,!-Type
Zone_0:f18, !-Name
Wall,                    !-Surface Type
90.1-2019 Nonresidential CZ 0 Exterior Wall (Mass),                       !-Construction Name
Zone_0,            !-Zone Name
,            !-Space Name
Outdoors,                !-Outside Boundary Condition
,                        !-Outside Boundary Condition Object
SunExposed,              !-Sun Exposure
WindExposed,             !-Wind Exposure
Autocalculate,                      !-View Factor to Ground
4,                       !-Number of Vertices

125.5895, 14.3440, 12.6428,  !- X,Y,Z ==> Vertex
136.6222, 14.3440, 12.6428,  !- X,Y,Z ==> Vertex
136.6222, 14.3440, 15.2628,  !- X,Y,Z ==> Vertex
125.5895, 14.3440, 15.2628;  !- X,Y,Z ==> Vertex


FenestrationSurface:Detailed,
Zone_0:f18:w0, !-Name
Window,                  !- Surface Type
DoublePaneClr,   !- @Zone_0:f18:w0-Construction@
Zone_0:f18, !- Building Surface Name
,                        !- Outside Boundary Condition Object
Autocalculate,                      !- View Factor to Ground
Zone_0:f18:w0Frame,                       !- Frame and Divider Name
1,                       !- Multiplier
4,                       !-Number of Vertices

126.4353, 14.3440, 13.4886,  !- X,Y,Z ==> Vertex
135.7764, 14.3440, 13.4886,  !- X,Y,Z ==> Vertex
135.7764, 14.3440, 14.4170,  !- X,Y,Z ==> Vertex
126.4353, 14.3440, 14.4170;  !- X,Y,Z ==> Vertex

WindowProperty:FrameAndDivider,
    Zone_0:f18:w0Frame,    !- Name
    0.05,   !- Width [m]
    0.01,   !- FrameOutsideProjection [m]
    0.01,   !- FrameInsideProjection [m]
    6,   !- FrameConductance [W/m2-K]
    1.5,   !- Ratio of Frame-Edge Glass Conductance to Center-Of-Glass Conductance
    0.8,                     !- Frame Solar Absorptance
    0.8,                     !- Frame Visible Absorptance
    0.9,                     !- Frame Thermal Hemispherical Emissivity
    DividedLite,             !- Divider Type
    0,   !- DividerWidth [m]
    0,                       !- Number of Horizontal Dividers
    0,                       !- Number of Vertical Dividers
    0.03,                    !- Divider Outside Projection [m]
    0.03,                    !- Divider Inside Projection [m]
    6,                     !- Divider Conductance [W/m2-K]
    1.5,                     !- Ratio of Divider-Edge Glass Conductance to Center-Of-Glass Conductance
    0.8,                     !- Divider Solar Absorptance
    0.8,                     !- Divider Visible Absorptance
    0.9,                     !- Divider Thermal Hemispherical Emissivity
    0.7,                     !- Outside Reveal Solar Absorptance
    0,   !- InsideSillDepth [m]
    0.6,                     !- Inside Sill Solar Absorptance
    0,   !- InsideRevealDepth [m]
    0.5;                     !- Inside Reveal Solar Absorptance


WindowShadingControl,
Zone_0:f18:w0_ShadingControl,                                          !- Name of shading control
Zone_0,                                          !- Zone Name
1,                       !-Shading Control Sequence Number
ExteriorShade,                                 !- Shading type
,                                              !- Construction with Shading Name
OnIfHighSolarOnWindow,   !- @Zone_0:f18:w0-ShadingControlType@
AllOn,   !- @Zone_0:f18:w0-ShadingSystemAvailibilitySchedule@
180,   !- @Zone_0:f18:w0-ShadingSystemSetPoint@
  Yes,                                           !- Shading control is scheduled
  No,                                            !- Glare control is active
Zone_0:f18:w0_Shade,                              !- Material name of shading device
  FixedSlatAngle,                                !- Type of slat angle control
  ,                                              !- Slat angle schedule name
  0,                                             !- Setpoint 2
, !-Daylighting Control Object Name
Sequential, !-Multiple Surface Control Type
Zone_0:f18:w0; !-Fenestration Surface 1 Name

WindowMaterial:Shade,
  Zone_0:f18:w0_Shade, !- Name
  0.5,   !- @Zone_0:f18:w0-ShadingSystemTransmittanceSolar@
  0.49, !- Solar Reflectance
  0.5,   !- @Zone_0:f18:w0-ShadingSystemTransmittanceVisible@
  0.49, !- Visible reflectance
  0.9, !- Thermal Hemispherical Emissivity
  0.0, !- Infrared Transmittance 
  0.003,   !- @Zone_0:f18:w0-ShadingThickness@ [m]
  0.1,   !- @Zone_0:f18:w0-ShadingConductivity@ [W/m-K]
  0.05,   !- @Zone_0:f18:w0-ShadeGlassDistance@ [m]
  1,   !- Top opening multiplier
  1,   !- Bottom opening multiplier
  1,   !- Left-side opening multiplier
  1,   !- Right-side opening multiplier
  0.0; !- Air flow permeability



! FACE NORMAL  -1 -0 -0
BuildingSurface:Detailed,!-Type
Zone_0:f19, !-Name
Wall,                    !-Surface Type
90.1-2019 Nonresidential CZ 0 Exterior Wall (Mass),                       !-Construction Name
Zone_0,            !-Zone Name
,            !-Space Name
Outdoors,                !-Outside Boundary Condition
,                        !-Outside Boundary Condition Object
SunExposed,              !-Sun Exposure
WindExposed,             !-Wind Exposure
Autocalculate,                      !-View Factor to Ground
4,                       !-Number of Vertices

136.6222, 14.3440, 12.6428,  !- X,Y,Z ==> Vertex
136.6222, 8.6393, 12.6428,  !- X,Y,Z ==> Vertex
136.6222, 8.6393, 15.2628,  !- X,Y,Z ==> Vertex
136.6222, 14.3440, 15.2628;  !- X,Y,Z ==> Vertex


! FACE NORMAL  2.77656206580704E-05 -0.9999999996145353 -0
BuildingSurface:Detailed,!-Type
Zone_0:f20, !-Name
Wall,                    !-Surface Type
90.1-2019 Nonresidential CZ 0 Exterior Wall (Mass),                       !-Construction Name
Zone_0,            !-Zone Name
,            !-Space Name
Outdoors,                !-Outside Boundary Condition
,                        !-Outside Boundary Condition Object
SunExposed,              !-Sun Exposure
WindExposed,             !-Wind Exposure
Autocalculate,                      !-View Factor to Ground
4,                       !-Number of Vertices

136.6222, 8.6393, 12.6428,  !- X,Y,Z ==> Vertex
137.9564, 8.6393, 12.6428,  !- X,Y,Z ==> Vertex
137.9564, 8.6393, 15.2628,  !- X,Y,Z ==> Vertex
136.6222, 8.6393, 15.2628;  !- X,Y,Z ==> Vertex


FenestrationSurface:Detailed,
Zone_0:f20:w0, !-Name
Window,                  !- Surface Type
DoublePaneClr,   !- @Zone_0:f20:w0-Construction@
Zone_0:f20, !- Building Surface Name
,                        !- Outside Boundary Condition Object
Autocalculate,                      !- View Factor to Ground
Zone_0:f20:w0Frame,                       !- Frame and Divider Name
1,                       !- Multiplier
4,                       !-Number of Vertices

137.0062, 8.6393, 13.0268,  !- X,Y,Z ==> Vertex
137.5725, 8.6393, 13.0268,  !- X,Y,Z ==> Vertex
137.5725, 8.6393, 14.8788,  !- X,Y,Z ==> Vertex
137.0062, 8.6393, 14.8788;  !- X,Y,Z ==> Vertex

WindowProperty:FrameAndDivider,
    Zone_0:f20:w0Frame,    !- Name
    0.05,   !- Width [m]
    0.01,   !- FrameOutsideProjection [m]
    0.01,   !- FrameInsideProjection [m]
    6,   !- FrameConductance [W/m2-K]
    1.5,   !- Ratio of Frame-Edge Glass Conductance to Center-Of-Glass Conductance
    0.8,                     !- Frame Solar Absorptance
    0.8,                     !- Frame Visible Absorptance
    0.9,                     !- Frame Thermal Hemispherical Emissivity
    DividedLite,             !- Divider Type
    0,   !- DividerWidth [m]
    0,                       !- Number of Horizontal Dividers
    0,                       !- Number of Vertical Dividers
    0.03,                    !- Divider Outside Projection [m]
    0.03,                    !- Divider Inside Projection [m]
    6,                     !- Divider Conductance [W/m2-K]
    1.5,                     !- Ratio of Divider-Edge Glass Conductance to Center-Of-Glass Conductance
    0.8,                     !- Divider Solar Absorptance
    0.8,                     !- Divider Visible Absorptance
    0.9,                     !- Divider Thermal Hemispherical Emissivity
    0.7,                     !- Outside Reveal Solar Absorptance
    0,   !- InsideSillDepth [m]
    0.6,                     !- Inside Sill Solar Absorptance
    0,   !- InsideRevealDepth [m]
    0.5;                     !- Inside Reveal Solar Absorptance


WindowShadingControl,
Zone_0:f20:w0_ShadingControl,                                          !- Name of shading control
Zone_0,                                          !- Zone Name
1,                       !-Shading Control Sequence Number
ExteriorShade,                                 !- Shading type
,                                              !- Construction with Shading Name
OnIfHighSolarOnWindow,   !- @Zone_0:f20:w0-ShadingControlType@
AllOn,   !- @Zone_0:f20:w0-ShadingSystemAvailibilitySchedule@
180,   !- @Zone_0:f20:w0-ShadingSystemSetPoint@
  Yes,                                           !- Shading control is scheduled
  No,                                            !- Glare control is active
Zone_0:f20:w0_Shade,                              !- Material name of shading device
  FixedSlatAngle,                                !- Type of slat angle control
  ,                                              !- Slat angle schedule name
  0,                                             !- Setpoint 2
, !-Daylighting Control Object Name
Sequential, !-Multiple Surface Control Type
Zone_0:f20:w0; !-Fenestration Surface 1 Name

WindowMaterial:Shade,
  Zone_0:f20:w0_Shade, !- Name
  0.5,   !- @Zone_0:f20:w0-ShadingSystemTransmittanceSolar@
  0.49, !- Solar Reflectance
  0.5,   !- @Zone_0:f20:w0-ShadingSystemTransmittanceVisible@
  0.49, !- Visible reflectance
  0.9, !- Thermal Hemispherical Emissivity
  0.0, !- Infrared Transmittance 
  0.003,   !- @Zone_0:f20:w0-ShadingThickness@ [m]
  0.1,   !- @Zone_0:f20:w0-ShadingConductivity@ [W/m-K]
  0.05,   !- @Zone_0:f20:w0-ShadeGlassDistance@ [m]
  1,   !- Top opening multiplier
  1,   !- Bottom opening multiplier
  1,   !- Left-side opening multiplier
  1,   !- Right-side opening multiplier
  0.0; !- Air flow permeability



! FACE NORMAL  -0 -1 0
BuildingSurface:Detailed,!-Type
Zone_0:f21, !-Name
Wall,                    !-Surface Type
90.1-2019 Nonresidential CZ 0 Exterior Wall (Mass),                       !-Construction Name
Zone_0,            !-Zone Name
,            !-Space Name
Outdoors,                !-Outside Boundary Condition
,                        !-Outside Boundary Condition Object
SunExposed,              !-Sun Exposure
WindExposed,             !-Wind Exposure
Autocalculate,                      !-View Factor to Ground
4,                       !-Number of Vertices

131.1932, 18.7414, 12.6428,  !- X,Y,Z ==> Vertex
135.6999, 18.7414, 12.6428,  !- X,Y,Z ==> Vertex
135.6999, 18.7414, 15.2628,  !- X,Y,Z ==> Vertex
131.1932, 18.7414, 15.2628;  !- X,Y,Z ==> Vertex


FenestrationSurface:Detailed,
Zone_0:f21:w0, !-Name
Window,                  !- Surface Type
DoublePaneClr,   !- @Zone_0:f21:w0-Construction@
Zone_0:f21, !- Building Surface Name
,                        !- Outside Boundary Condition Object
Autocalculate,                      !- View Factor to Ground
Zone_0:f21:w0Frame,                       !- Frame and Divider Name
1,                       !- Multiplier
4,                       !-Number of Vertices

131.9222, 18.7414, 13.3718,  !- X,Y,Z ==> Vertex
134.9709, 18.7414, 13.3718,  !- X,Y,Z ==> Vertex
134.9709, 18.7414, 14.5338,  !- X,Y,Z ==> Vertex
131.9222, 18.7414, 14.5338;  !- X,Y,Z ==> Vertex

WindowProperty:FrameAndDivider,
    Zone_0:f21:w0Frame,    !- Name
    0.05,   !- Width [m]
    0.01,   !- FrameOutsideProjection [m]
    0.01,   !- FrameInsideProjection [m]
    6,   !- FrameConductance [W/m2-K]
    1.5,   !- Ratio of Frame-Edge Glass Conductance to Center-Of-Glass Conductance
    0.8,                     !- Frame Solar Absorptance
    0.8,                     !- Frame Visible Absorptance
    0.9,                     !- Frame Thermal Hemispherical Emissivity
    DividedLite,             !- Divider Type
    0,   !- DividerWidth [m]
    0,                       !- Number of Horizontal Dividers
    0,                       !- Number of Vertical Dividers
    0.03,                    !- Divider Outside Projection [m]
    0.03,                    !- Divider Inside Projection [m]
    6,                     !- Divider Conductance [W/m2-K]
    1.5,                     !- Ratio of Divider-Edge Glass Conductance to Center-Of-Glass Conductance
    0.8,                     !- Divider Solar Absorptance
    0.8,                     !- Divider Visible Absorptance
    0.9,                     !- Divider Thermal Hemispherical Emissivity
    0.7,                     !- Outside Reveal Solar Absorptance
    0,   !- InsideSillDepth [m]
    0.6,                     !- Inside Sill Solar Absorptance
    0,   !- InsideRevealDepth [m]
    0.5;                     !- Inside Reveal Solar Absorptance


WindowShadingControl,
Zone_0:f21:w0_ShadingControl,                                          !- Name of shading control
Zone_0,                                          !- Zone Name
1,                       !-Shading Control Sequence Number
ExteriorShade,                                 !- Shading type
,                                              !- Construction with Shading Name
OnIfHighSolarOnWindow,   !- @Zone_0:f21:w0-ShadingControlType@
AllOn,   !- @Zone_0:f21:w0-ShadingSystemAvailibilitySchedule@
180,   !- @Zone_0:f21:w0-ShadingSystemSetPoint@
  Yes,                                           !- Shading control is scheduled
  No,                                            !- Glare control is active
Zone_0:f21:w0_Shade,                              !- Material name of shading device
  FixedSlatAngle,                                !- Type of slat angle control
  ,                                              !- Slat angle schedule name
  0,                                             !- Setpoint 2
, !-Daylighting Control Object Name
Sequential, !-Multiple Surface Control Type
Zone_0:f21:w0; !-Fenestration Surface 1 Name

WindowMaterial:Shade,
  Zone_0:f21:w0_Shade, !- Name
  0.5,   !- @Zone_0:f21:w0-ShadingSystemTransmittanceSolar@
  0.49, !- Solar Reflectance
  0.5,   !- @Zone_0:f21:w0-ShadingSystemTransmittanceVisible@
  0.49, !- Visible reflectance
  0.9, !- Thermal Hemispherical Emissivity
  0.0, !- Infrared Transmittance 
  0.003,   !- @Zone_0:f21:w0-ShadingThickness@ [m]
  0.1,   !- @Zone_0:f21:w0-ShadingConductivity@ [W/m-K]
  0.05,   !- @Zone_0:f21:w0-ShadeGlassDistance@ [m]
  1,   !- Top opening multiplier
  1,   !- Bottom opening multiplier
  1,   !- Left-side opening multiplier
  1,   !- Right-side opening multiplier
  0.0; !- Air flow permeability



! FACE NORMAL  -1 -0 -0
BuildingSurface:Detailed,!-Type
Zone_0:f22, !-Name
Wall,                    !-Surface Type
90.1-2019 Nonresidential CZ 0 Exterior Wall (Mass),                       !-Construction Name
Zone_0,            !-Zone Name
,            !-Space Name
Outdoors,                !-Outside Boundary Condition
,                        !-Outside Boundary Condition Object
SunExposed,              !-Sun Exposure
WindExposed,             !-Wind Exposure
Autocalculate,                      !-View Factor to Ground
4,                       !-Number of Vertices

135.6999, 18.7414, 12.6428,  !- X,Y,Z ==> Vertex
135.6999, 14.6346, 12.6428,  !- X,Y,Z ==> Vertex
135.6999, 14.6346, 15.2628,  !- X,Y,Z ==> Vertex
135.6999, 18.7414, 15.2628;  !- X,Y,Z ==> Vertex


! FACE NORMAL  -0 1 -0
BuildingSurface:Detailed,!-Type
Zone_0:f23, !-Name
Wall,                    !-Surface Type
90.1-2019 Nonresidential CZ 0 Exterior Wall (Mass),                       !-Construction Name
Zone_0,            !-Zone Name
,            !-Space Name
Outdoors,                !-Outside Boundary Condition
,                        !-Outside Boundary Condition Object
SunExposed,              !-Sun Exposure
WindExposed,             !-Wind Exposure
Autocalculate,                      !-View Factor to Ground
4,                       !-Number of Vertices

135.6999, 14.6346, 12.6428,  !- X,Y,Z ==> Vertex
131.1932, 14.6346, 12.6428,  !- X,Y,Z ==> Vertex
131.1932, 14.6346, 15.2628,  !- X,Y,Z ==> Vertex
135.6999, 14.6346, 15.2628;  !- X,Y,Z ==> Vertex


FenestrationSurface:Detailed,
Zone_0:f23:w0, !-Name
Window,                  !- Surface Type
DoublePaneClr,   !- @Zone_0:f23:w0-Construction@
Zone_0:f23, !- Building Surface Name
,                        !- Outside Boundary Condition Object
Autocalculate,                      !- View Factor to Ground
Zone_0:f23:w0Frame,                       !- Frame and Divider Name
1,                       !- Multiplier
4,                       !-Number of Vertices

135.1028, 14.6346, 13.2399,  !- X,Y,Z ==> Vertex
131.7903, 14.6346, 13.2399,  !- X,Y,Z ==> Vertex
131.7903, 14.6346, 14.6657,  !- X,Y,Z ==> Vertex
135.1028, 14.6346, 14.6657;  !- X,Y,Z ==> Vertex

WindowProperty:FrameAndDivider,
    Zone_0:f23:w0Frame,    !- Name
    0.05,   !- Width [m]
    0.01,   !- FrameOutsideProjection [m]
    0.01,   !- FrameInsideProjection [m]
    6,   !- FrameConductance [W/m2-K]
    1.5,   !- Ratio of Frame-Edge Glass Conductance to Center-Of-Glass Conductance
    0.8,                     !- Frame Solar Absorptance
    0.8,                     !- Frame Visible Absorptance
    0.9,                     !- Frame Thermal Hemispherical Emissivity
    DividedLite,             !- Divider Type
    0,   !- DividerWidth [m]
    0,                       !- Number of Horizontal Dividers
    0,                       !- Number of Vertical Dividers
    0.03,                    !- Divider Outside Projection [m]
    0.03,                    !- Divider Inside Projection [m]
    6,                     !- Divider Conductance [W/m2-K]
    1.5,                     !- Ratio of Divider-Edge Glass Conductance to Center-Of-Glass Conductance
    0.8,                     !- Divider Solar Absorptance
    0.8,                     !- Divider Visible Absorptance
    0.9,                     !- Divider Thermal Hemispherical Emissivity
    0.7,                     !- Outside Reveal Solar Absorptance
    0,   !- InsideSillDepth [m]
    0.6,                     !- Inside Sill Solar Absorptance
    0,   !- InsideRevealDepth [m]
    0.5;                     !- Inside Reveal Solar Absorptance


WindowShadingControl,
Zone_0:f23:w0_ShadingControl,                                          !- Name of shading control
Zone_0,                                          !- Zone Name
1,                       !-Shading Control Sequence Number
ExteriorShade,                                 !- Shading type
,                                              !- Construction with Shading Name
OnIfHighSolarOnWindow,   !- @Zone_0:f23:w0-ShadingControlType@
AllOn,   !- @Zone_0:f23:w0-ShadingSystemAvailibilitySchedule@
180,   !- @Zone_0:f23:w0-ShadingSystemSetPoint@
  Yes,                                           !- Shading control is scheduled
  No,                                            !- Glare control is active
Zone_0:f23:w0_Shade,                              !- Material name of shading device
  FixedSlatAngle,                                !- Type of slat angle control
  ,                                              !- Slat angle schedule name
  0,                                             !- Setpoint 2
, !-Daylighting Control Object Name
Sequential, !-Multiple Surface Control Type
Zone_0:f23:w0; !-Fenestration Surface 1 Name

WindowMaterial:Shade,
  Zone_0:f23:w0_Shade, !- Name
  0.5,   !- @Zone_0:f23:w0-ShadingSystemTransmittanceSolar@
  0.49, !- Solar Reflectance
  0.5,   !- @Zone_0:f23:w0-ShadingSystemTransmittanceVisible@
  0.49, !- Visible reflectance
  0.9, !- Thermal Hemispherical Emissivity
  0.0, !- Infrared Transmittance 
  0.003,   !- @Zone_0:f23:w0-ShadingThickness@ [m]
  0.1,   !- @Zone_0:f23:w0-ShadingConductivity@ [W/m-K]
  0.05,   !- @Zone_0:f23:w0-ShadeGlassDistance@ [m]
  1,   !- Top opening multiplier
  1,   !- Bottom opening multiplier
  1,   !- Left-side opening multiplier
  1,   !- Right-side opening multiplier
  0.0; !- Air flow permeability



! FACE NORMAL  1 -0 -0
BuildingSurface:Detailed,!-Type
Zone_0:f24, !-Name
Wall,                    !-Surface Type
90.1-2019 Nonresidential CZ 0 Exterior Wall (Mass),                       !-Construction Name
Zone_0,            !-Zone Name
,            !-Space Name
Outdoors,                !-Outside Boundary Condition
,                        !-Outside Boundary Condition Object
SunExposed,              !-Sun Exposure
WindExposed,             !-Wind Exposure
Autocalculate,                      !-View Factor to Ground
4,                       !-Number of Vertices

131.1932, 14.6346, 12.6428,  !- X,Y,Z ==> Vertex
131.1932, 18.7414, 12.6428,  !- X,Y,Z ==> Vertex
131.1932, 18.7414, 15.2628,  !- X,Y,Z ==> Vertex
131.1932, 14.6346, 15.2628;  !- X,Y,Z ==> Vertex


FenestrationSurface:Detailed,
Zone_0:f24:w0, !-Name
Window,                  !- Surface Type
DoublePaneClr,   !- @Zone_0:f24:w0-Construction@
Zone_0:f24, !- Building Surface Name
,                        !- Outside Boundary Condition Object
Autocalculate,                      !- View Factor to Ground
Zone_0:f24:w0Frame,                       !- Frame and Divider Name
1,                       !- Multiplier
4,                       !-Number of Vertices

131.1932, 15.2144, 13.2226,  !- X,Y,Z ==> Vertex
131.1932, 18.1615, 13.2226,  !- X,Y,Z ==> Vertex
131.1932, 18.1615, 14.6830,  !- X,Y,Z ==> Vertex
131.1932, 15.2144, 14.6830;  !- X,Y,Z ==> Vertex

WindowProperty:FrameAndDivider,
    Zone_0:f24:w0Frame,    !- Name
    0.05,   !- Width [m]
    0.01,   !- FrameOutsideProjection [m]
    0.01,   !- FrameInsideProjection [m]
    6,   !- FrameConductance [W/m2-K]
    1.5,   !- Ratio of Frame-Edge Glass Conductance to Center-Of-Glass Conductance
    0.8,                     !- Frame Solar Absorptance
    0.8,                     !- Frame Visible Absorptance
    0.9,                     !- Frame Thermal Hemispherical Emissivity
    DividedLite,             !- Divider Type
    0,   !- DividerWidth [m]
    0,                       !- Number of Horizontal Dividers
    0,                       !- Number of Vertical Dividers
    0.03,                    !- Divider Outside Projection [m]
    0.03,                    !- Divider Inside Projection [m]
    6,                     !- Divider Conductance [W/m2-K]
    1.5,                     !- Ratio of Divider-Edge Glass Conductance to Center-Of-Glass Conductance
    0.8,                     !- Divider Solar Absorptance
    0.8,                     !- Divider Visible Absorptance
    0.9,                     !- Divider Thermal Hemispherical Emissivity
    0.7,                     !- Outside Reveal Solar Absorptance
    0,   !- InsideSillDepth [m]
    0.6,                     !- Inside Sill Solar Absorptance
    0,   !- InsideRevealDepth [m]
    0.5;                     !- Inside Reveal Solar Absorptance


WindowShadingControl,
Zone_0:f24:w0_ShadingControl,                                          !- Name of shading control
Zone_0,                                          !- Zone Name
1,                       !-Shading Control Sequence Number
ExteriorShade,                                 !- Shading type
,                                              !- Construction with Shading Name
OnIfHighSolarOnWindow,   !- @Zone_0:f24:w0-ShadingControlType@
AllOn,   !- @Zone_0:f24:w0-ShadingSystemAvailibilitySchedule@
180,   !- @Zone_0:f24:w0-ShadingSystemSetPoint@
  Yes,                                           !- Shading control is scheduled
  No,                                            !- Glare control is active
Zone_0:f24:w0_Shade,                              !- Material name of shading device
  FixedSlatAngle,                                !- Type of slat angle control
  ,                                              !- Slat angle schedule name
  0,                                             !- Setpoint 2
, !-Daylighting Control Object Name
Sequential, !-Multiple Surface Control Type
Zone_0:f24:w0; !-Fenestration Surface 1 Name

WindowMaterial:Shade,
  Zone_0:f24:w0_Shade, !- Name
  0.5,   !- @Zone_0:f24:w0-ShadingSystemTransmittanceSolar@
  0.49, !- Solar Reflectance
  0.5,   !- @Zone_0:f24:w0-ShadingSystemTransmittanceVisible@
  0.49, !- Visible reflectance
  0.9, !- Thermal Hemispherical Emissivity
  0.0, !- Infrared Transmittance 
  0.003,   !- @Zone_0:f24:w0-ShadingThickness@ [m]
  0.1,   !- @Zone_0:f24:w0-ShadingConductivity@ [W/m-K]
  0.05,   !- @Zone_0:f24:w0-ShadeGlassDistance@ [m]
  1,   !- Top opening multiplier
  1,   !- Bottom opening multiplier
  1,   !- Left-side opening multiplier
  1,   !- Right-side opening multiplier
  0.0; !- Air flow permeability



! FACE NORMAL  0 0 1
BuildingSurface:Detailed,!-Type
Zone_0:f25, !-Name
Roof,                    !-Surface Type
90.1-2019 Nonresidential CZ 0 Exterior Roof (Mass),                       !-Construction Name
Zone_0,            !-Zone Name
,            !-Space Name
Outdoors,                !-Outside Boundary Condition
,                        !-Outside Boundary Condition Object
SunExposed,              !-Sun Exposure
WindExposed,             !-Wind Exposure
0,                      !-View Factor to Ground
26,                       !-Number of Vertices

137.9564, 8.6393, 15.2628,  !- X,Y,Z ==> Vertex
137.9507, 11.1436, 15.2628,  !- X,Y,Z ==> Vertex
137.9398, 11.1436, 15.2628,  !- X,Y,Z ==> Vertex
137.9398, 16.7234, 15.2628,  !- X,Y,Z ==> Vertex
137.9537, 16.7234, 15.2628,  !- X,Y,Z ==> Vertex
137.9540, 24.1543, 15.2629,  !- X,Y,Z ==> Vertex
136.4551, 24.1538, 15.2628,  !- X,Y,Z ==> Vertex
136.4535, 28.1542, 15.2628,  !- X,Y,Z ==> Vertex
132.0081, 28.1489, 15.2628,  !- X,Y,Z ==> Vertex
132.0081, 19.4648, 15.2628,  !- X,Y,Z ==> Vertex
127.0387, 19.4648, 15.2628,  !- X,Y,Z ==> Vertex
127.0387, 21.6569, 15.2628,  !- X,Y,Z ==> Vertex
123.4900, 21.6557, 15.2628,  !- X,Y,Z ==> Vertex
123.4878, 17.6547, 15.2628,  !- X,Y,Z ==> Vertex
126.8849, 17.6547, 15.2628,  !- X,Y,Z ==> Vertex
126.8849, 16.1325, 15.2628,  !- X,Y,Z ==> Vertex
125.5895, 16.1325, 15.2628,  !- X,Y,Z ==> Vertex
125.5895, 14.3440, 15.2628,  !- X,Y,Z ==> Vertex
131.1932, 14.3440, 15.2628,  !- X,Y,Z ==> Vertex
131.1932, 14.6346, 15.2628,  !- X,Y,Z ==> Vertex
135.6999, 14.6346, 15.2628,  !- X,Y,Z ==> Vertex
135.6999, 18.7414, 15.2628,  !- X,Y,Z ==> Vertex
131.1932, 14.6346, 15.2628,  !- X,Y,Z ==> Vertex
131.1932, 14.3440, 15.2628,  !- X,Y,Z ==> Vertex
136.6222, 14.3440, 15.2628,  !- X,Y,Z ==> Vertex
136.6222, 8.6393, 15.2628;  !- X,Y,Z ==> Vertex



!------------------------Ideal Loads System Zone_0------------------------

ZoneHVAC:EquipmentConnections,
  Zone_0,            !- Zone Name
  Zone_0 Equipment,  !- Zone Conditioning Equipment List Name
  Zone_0 Inlets,     !- Zone Air Inlet Node or NodeList Name
  ,                         !- Zone Air Exhaust Node or NodeList Name
  Node Zone_0 Zone,  !- Zone Air Node Name
  Node Zone_0 Out;   !- Zone Return Air Node Name

ZoneHVAC:EquipmentList,
  Zone_0 Equipment,       !- Name
  UniformLoad,                   !- Load Distribution Scheme
  ZoneHVAC:IdealLoadsAirSystem,  !- Zone Equipment 1 Object Type
  Zone_0 Ideal Loads Air, !- Zone Equipment 1 Name
  1,                             !- Zone Equipment 1 Cooling Sequence
  1;                             !- Zone Equipment 1 Heating or No-Load Sequence

NodeList,
  Zone_0 Inlets,     !- Name
  Node Zone_0 In;    !- Node 1 Name

ZoneHVAC:IdealLoadsAirSystem,
  Zone_0 Ideal Loads Air,  !- Name
  ,                        !- Availability Schedule Name
  Node Zone_0 In,   !- Zone Supply Air Node Name
  ,                        !- Zone Exhaust Air Node Name
  ,                        !- System Inlet Air Node Name
  35,                      !- Maximum Heating Supply Air Temperature {C}
  12,                      !- Minimum Cooling Supply Air Temperature {C}
  0.01,                    !- Maximum Heating Supply Air Humidity Ratio {kgWater/kgDryAir}
  0.008,                   !- Minimum Cooling Supply Air Humidity Ratio {kgWater/kgDryAir}
  LimitFlowRateAndCapacity,                 !- Heating Limit
  Autosize, !- MaximumHeatingAirFlowRate [m3/s]
  Autosize, !- MaximumSensibleHeatingCapacity [W]
  LimitFlowRateAndCapacity,                 !- Cooling Limit
  Autosize , !- MaximumCoolingAirFlowRate [m3/s]
  Autosize, !- MaximumTotalCoolingCapacity [W]
  Off, !- HeatingAvailabilitySchedule
  CoolAvail_Zone_0, !- CoolingAvailabilitySchedule
  Humidistat,                    !- Dehumidification Control Type
  ,                        !- Cooling Sensible Heat Ratio {dimensionless}
  Humidistat,                    !- Humidification Control Type
  Zone_0MinFreshAir,                        !- Design Specification Outdoor Air Object Name
  Zone_0OutdoorInlet,                        !- Outdoor Air Inlet Node Name
  OccupancySchedule,                        !- Demand Controlled Ventilation Type
  NoEconomizer,                        !- Outdoor Air Economizer Type
  None,                        !- Heat Recovery Type
  0.7, !-  SensibleHeatRecoveryEffectiveness
  0.65; !-  LatentHeatRecoveryEffectiveness




Sizing:Zone,
  Zone_0,                   !- Zone or ZoneList Name
  SupplyAirTemperature,    !- Zone Cooling Design Supply Air Temperature Input Method
  12,                      !- Zone Cooling Design Supply Air Temperature {C}
  ,                        !- Zone Cooling Design Supply Air Temperature Difference {deltaC}
  SupplyAirTemperature,    !- Zone Heating Design Supply Air Temperature Input Method
  35,                 !- Zone Heating Design Supply Air Temperature {C}
  ,                        !- Zone Heating Design Supply Air Temperature Difference {deltaC}
  0.009,                   !- Zone Cooling Design Supply Air Humidity Ratio {kgWater/kgDryAir}
  0.004,                   !- Zone Heating Design Supply Air Humidity Ratio {kgWater/kgDryAir}
  Zone_0MinFreshAir,        !- Design Specification Outdoor Air Object Name
  1.15,                   !- Zone Heating Sizing Factor
  1.15,                   !- Zone Cooling Sizing Factor
  DesignDay,               !- Cooling Design Air Flow Method
  ,                        !- Cooling Design Air Flow Rate {m3/s}
  ,                        !- Cooling Minimum Air Flow per Zone Floor Area {m3/s-m2}
  ,                        !- Cooling Minimum Air Flow {m3/s}
  ,                        !- Cooling Minimum Air Flow Fraction
  DesignDay,               !- Heating Design Air Flow Method
  ,                        !- Heating Design Air Flow Rate {m3/s}
  ,                        !- Heating Maximum Air Flow per Zone Floor Area {m3/s-m2}
  ,                        !- Heating Maximum Air Flow {m3/s}
  ,                        !- Heating Maximum Air Flow Fraction
  ,                        !- Design Specification Zone Air Distribution Object Name
  ,                        !- Account for Dedicated Outdoor Air System
  ,                        !- Dedicated Outdoor Air System Control Strategy
  ,                        !- Dedicated Outdoor Air Low Setpoint Temperature for Design {C}
  ;                        !- Dedicated Outdoor Air High Setpoint Temperature for Design {C}


!------------------------ Thermostat Zone_0------------------------

Schedule:Constant,
  Zone_0Heating_SP_Sch, !- Name
  Temperature, !- Schedule Type Limits Name
  20; !- HeatingSetpoint

Schedule:Constant,
  Zone_0Cooling_SP_Sch, !- Name
  Temperature, !- Schedule Type Limits Name
  26; !- CoolingSetpoint


ZoneControl:Thermostat,
  Zone_0 Thermostat, !- Name
  Zone_0,            !- Zone or ZoneList Name
  Zone_0_ZoneControlTypeSched, !- Control Type Schedule Name
  ThermostatSetpoint:DualSetpoint,  !- Control 1 Object Type
  Dual Setpoint - Zone Zone_0;  !- Control 1 Name

Schedule:Constant,
  Zone_0_ZoneControlTypeSched, !- Name
  Any Number, !- Schedule Type Limits Name
  4; !- Hourly Value

ThermostatSetpoint:DualSetpoint,
  Dual Setpoint - Zone Zone_0,  !- Name
  Zone_0Heating_SP_Sch,  !- Heating Setpoint Temperature Schedule Name
  Zone_0Cooling_SP_Sch;  !- Cooling Setpoint Temperature Schedule Name


!------------------------ Humidistat Zone_0------------------------

ZoneControl:Humidistat,
    Zone_0Humidistat,                  !-Name
    Zone_0,                   !-Zone Name
    Zone_0HumidMin,                !-Humidifying Relative Humidity Setpoint Schedule Name
    Zone_0HumidMax; !-Dehumidifying Relative Humidity Setpoint Schedule Name

Schedule:Constant,
    Zone_0HumidMin,                !- Name
    Any Number,              !- Schedule Type Limits Name
    20; !- MinHumidity

Schedule:Constant,
    Zone_0HumidMax,                !- Name
    Any Number,              !- Schedule Type Limits Name
    80; !- MaxHumidity


!------------------------ OutdoorAir Zone_0------------------------

DesignSpecification:OutdoorAir,
  Zone_0MinFreshAir,                  !- Name
  Sum,                     !- Outdoor Air Method
  0.0006, !- @Zone_0-MinFreshAirPerson@ [m3/s-person]
  0.001, !- @Zone_0-MinFreshAirArea@ [m3/s-m2]
    ,                        !- Outdoor Air Flow per Zone [m3/s]
    ,                        !- Outdoor Air Flow Air Changes per Hour [1/hr]
    AllOn; !- MechVentSchedule



! ------------------------ Fan EMS Objects




! ------------------------ OUTPUTS

Output:Meter:MeterFileOnly,Cooling:Electricity,Hourly;
Output:Meter:MeterFileOnly,Heating:Electricity,Hourly;
Output:Meter:MeterFileOnly,Heating:NaturalGas,Hourly;
Output:Meter:MeterFileOnly,Heating:FuelOilNo1,Hourly;
Output:Meter:MeterFileOnly,Heating:FuelOilNo2,Hourly;
Output:Meter:MeterFileOnly,Heating:Coal,Hourly;
Output:Meter:MeterFileOnly,Heating:Gasoline,Hourly;
Output:Meter:MeterFileOnly,Heating:Propane,Hourly;
Output:Meter:MeterFileOnly,Heating:Diesel,Hourly;
Output:Meter:MeterFileOnly,Heating:OtherFuel1,Hourly;
Output:Meter:MeterFileOnly,Heating:OtherFuel2,Hourly;
Output:Meter:MeterFileOnly,Fans:Electricity,Hourly;
Output:Meter:MeterFileOnly,Pumps:Electricity,Hourly;
Output:Meter:MeterFileOnly,Humidifier:Electricity,Hourly;
Output:Meter:MeterFileOnly,HeatRejection:Electricity,Hourly;
Output:Meter:MeterFileOnly,Heating:EnergyTransfer:Zone:*,Hourly;
Output:Meter:MeterFileOnly,Cooling:EnergyTransfer:Zone:*,Hourly;
Output:Variable,*,Zone People Total Heating Energy,Hourly;
Output:Variable,*,Zone Lights Electricity Energy,Hourly;
Output:Variable,*,Electric Equipment Electricity Energy,Hourly;
Output:Variable,*,Zone Windows Total Transmitted Solar Radiation Energy,Hourly;
Output:Variable,*,Zone Windows Total Heat Gain Energy,Hourly;
Output:Variable,*,Zone Windows Total Heat Loss Energy,Hourly;
Output:Variable,*,Zone Opaque Surface Inside Faces Total Conduction Heat Gain Energy,Hourly;
Output:Variable,*,Zone Opaque Surface Inside Faces Total Conduction Heat Loss Energy,Hourly;
Output:Variable,*,Zone Mean Radiant Temperature,Hourly;
Output:Variable,*,Zone Mean Air Temperature,Hourly;
Output:Variable,*,Zone Operative Temperature,Hourly;
Output:Variable,*,Zone Infiltration Total Heat Loss Energy,Hourly;
Output:Variable,*,Zone Infiltration Total Heat Gain Energy,Hourly;
Output:Variable,*,Zone Ventilation Total Heat Loss Energy,Hourly;
Output:Variable,*,Zone Ventilation Total Heat Gain Energy,Hourly;
Output:Variable,*,Zone Air Relative Humidity,Hourly;
Output:Variable,*,Zone Ideal Loads Supply Air Total Heating Energy,Hourly;
Output:Variable,*,Zone Ideal Loads Supply Air Total Cooling Energy,Hourly;
Output:Variable,*,Zone Ideal Loads Zone Total Heating Energy,Hourly;
Output:Variable,*,Zone Ideal Loads Zone Total Cooling Energy,Hourly;
Output:Variable,*,Zone Ideal Loads Outdoor Air Total Heating Energy,Hourly;
Output:Variable,*,Zone Ideal Loads Outdoor Air Total Cooling Energy,Hourly;
Output:Variable,*,Zone Ideal Loads Heat Recovery Total Heating Energy,Hourly;
Output:Variable,*,Zone Ideal Loads Heat Recovery Total Cooling Energy,Hourly;
Output:Variable,*,Water Use Equipment Heating Energy,Hourly;


Output:VariableDictionary, IDF;
Output:Surfaces:Drawing,DXF,Triangulate3DFace;
Output:Surfaces:List,Details;
!Output:Constructions,Constructions;
!Output:Diagnostics,DisplayExtraWarnings;
!Output:Diagnostics,DisplayUnusedSchedules;
!Output:Diagnostics,DisplayUnusedObjects;
Output:Diagnostics,DisplayAdvancedReportVariables;

Output:Table:SummaryReports,
    EnvelopeSummary,         !- Report 
    AnnualBuildingUtilityPerformanceSummary, !- Report 
    InputVerificationandResultsSummary,  !- Report 
    SourceEnergyEndUseComponentsSummary, !- Report 
    ShadingSummary,!- Report 
    ThermalResilienceSummary;          !- Report 


