! ----  This file was generated with Climate Studio 2.3.9530.31237

Version,23.1;

Site:GroundTemperature:BuildingSurface,18,18,18,18,18,18,18,18,18,18,18,18;

Site:GroundReflectance,0.2,0.2,0.2,0.2,0.2,0.2,0.2,0.2,0.2,0.2,0.2,0.2;

Site:GroundReflectance:SnowModifier,
  1.0,                     !- Ground Reflected Solar Modifier
  1.0;                     !- Daylighting Ground Reflected Solar Modifier


Site:WeatherStation, 
10, !- Wind Sensor Height Above Ground {m} 
0.22, !- Wind Speed Profile Exponent {} 
370, !- Wind Speed Profile Boundary Layer Thickness {m} 
1.5; !- Air Temperature Sensor Height Above Ground {m}


ZoneAirContaminantBalance,
  Yes,                       !- Carbon Dioxide Concentration
  GlobalCO2,      !- Outdoor Carbon Dioxide Schedule Name
  No,                       !- Generic Contaminant Concentration
  Off; !- Outdoor Generic Contaminant Schedule Name


!-   ===========  ALL OBJECTS IN CLASS: RUNPERIOD ===========

RunPeriod,
  Climate Studio,                 !- Name
  1,                       !- Begin Month
  1,                       !- Begin Day of Month
  , !- Begin Year
  12,                      !- End Month
  31,                      !- End Day of Month
  , !- End Year
  Sunday,          !- Day of Week for Start Day
  No,                     !- Use Weather File Holidays and Special Days
  No,                     !- Use Weather File Daylight Saving Period
  No,                      !- Apply Weekend Holiday Rule
  Yes,                     !- Use Weather File Rain Indicators
  Yes,                     !- Use Weather File Snow Indicators
  No;                      !- Treat Weather as Actual

RunPeriodControl:DaylightSavingTime,2nd Sunday in March, 1st Sunday in November; !2007


!-   ===========  ALL OBJECTS IN CLASS: SIMULATIONCONTROL ===========

SimulationControl,
Yes, !- Do Zone Sizing Calculation
Yes, !- Do System Sizing Calculation
Yes, !- Do Plant Sizing Calculation
No, !- Run Simulation for Sizing Periods
Yes, !- Run Simulation for Weather File Run Periods
No, !- Do HVAC Sizing Simulation for Sizing Periods
2; !- Maximum Number of HVAC Sizing Simulation Passes


!-   ===========  ALL OBJECTS IN CLASS: CONVERGENCELIMITS ===========

ConvergenceLimits,
0, !- Minimum System Timestep (0 = same as zone timestep)
100, !- Maximum HVAC Iterations
3, !- Minimum Plant Iterations
10; !- Maximum Plant Iterations


!-   ===========  ALL OBJECTS IN CLASS: SCHEDULETYPELIMITS ===========

ScheduleTypeLimits,
  Any Number;              !- Name

ScheduleTypeLimits,
  Fraction,                !- Name
  0.0,                     !- Lower Limit Value {A3}
  1.0,                     !- Upper Limit Value {A3}
  CONTINUOUS;              !- Numeric Type

ScheduleTypeLimits,
  Temperature,             !- Name
  -60,                     !- Lower Limit Value
  200,                     !- Upper Limit Value
  CONTINUOUS;              !- Numeric Type

ScheduleTypeLimits,
  AnyNumber,               !- Name
  -1E11,                   !- Lower Limit Value
  1E11,                    !- Upper Limit Value
  CONTINUOUS;              !- Numeric Type

ScheduleTypeLimits,
  Control Type,            !- Name
  0,                       !- Lower Limit Value
  4,                       !- Upper Limit Value
  DISCRETE;                !- Numeric Type

ScheduleTypeLimits,
  On/Off,                  !- Name
  0,                       !- Lower Limit Value
  1,                       !- Upper Limit Value
  DISCRETE;                !- Numeric Type

Schedule:Constant,
  On,                      !- Name
  On/Off,                  !- Schedule Type Limits Name
  1;                       !- Value

Schedule:Constant,
  Off,                     !- Name
  On/Off,                  !- Schedule Type Limits Name
  0;                       !- Value


! -------------------------ERL SENSORS--------------------------

EnergyManagementSystem:Sensor,                                             
  OutdoorTemp, !- Name                                         
  Environment, !- Output:Variable Index Key Name               
  Site Outdoor Air Drybulb Temperature; !- Output:Variable Name

EnergyManagementSystem:Sensor,                                             
  OutdoorRelHumid, !- Name                                         
  Environment, !- Output:Variable Index Key Name               
  Site Outdoor Air Relative Humidity; !- Output:Variable Name

Output:EnergyManagementSystem,
  Verbose,                 !- Actuator Availability Dictionary Reporting
  Verbose,                 !- Internal Variable Availability Dictionary Reporting
  Verbose;                 !- EMS Runtime Language Debug Output Level

! Output:SQLite, Simple;



SizingPeriod:WeatherFileConditionType ,
    Extreme Summer Weather Period for Design, !- Name
    SummerExtreme , !- Period Selection
    SummerDesignDay , !- Day Type
    No, !- Use Weather File Daylight Saving Period
    No; !- Use Weather File Rain and Snow Indicators

SizingPeriod:WeatherFileConditionType ,
    Extreme Winter Weather Period for Design, !- Name
    WinterExtreme , !- Period Selection
    WinterDesignDay , !- Day Type
    No, !- Use Weather File Daylight Saving Period
    No; !- Use Weather File Rain and Snow Indicators

Sizing:Parameters,
    1.5,                     !- Heating Sizing Factor
    1.5;                     !- Cooling Sizing Factor




GlobalGeometryRules,
  LowerLeftCorner,         !- Starting Vertex Position
  CounterClockWise,        !- Vertex Entry Direction
  Relative;                !- Coordinate System

ShadowCalculation,
    PixelCounting,           !- Shading Calculation Method
    Periodic,                !- Shading Calculation Update Frequency Method
    20,                      !- Shading Calculation Update Frequency
    15000,                   !- Maximum Figures in Shadow Overlap Calculations
    ,                        !- Polygon Clipping Algorithm
    512,                     !- Pixel Counting Resolution
    SimpleSkyDiffuseModeling,  !- Sky Diffuse Modeling Algorithm
    Yes,                     !- Output External Shading Calculation Results
    No,                      !- Disable Self-Shading Within Shading Zone Groups
    No;                      !- Disable Self-Shading From Shading Zone Groups to Other Zones

Building,
    Building,                !- Name
    0,        !- North Axis {deg}
    Suburbs,       !- Terrain
    0.04,                    !- Loads Convergence Tolerance Value
    0.25,                     !- Temperature Convergence Tolerance Value {deltaC}
    FullExterior,            !- Solar Distribution
    30,                      !- Maximum Number of Warmup Days
    7;                       !- Minimum Number of Warmup Days



!-   ===========  ALL OBJECTS IN CLASS: HEATBALANCEALGORITHM ===========

HeatBalanceAlgorithm,
    ConductionTransferFunction,  !- Algorithm
    200,                     !- Surface Temperature Upper Limit {C}
    0.1,                     !- Minimum Surface Convection Heat Transfer Coefficient Value {W/m2-K}
    1000;                    !- Maximum Surface Convection Heat Transfer Coefficient Value {W/m2-K}

Timestep,6;

SurfaceConvectionAlgorithm:Inside,TARP;

SurfaceConvectionAlgorithm:Outside,DOE-2;

! ------------ CONSTRUCTIONS 

! defaultConstruction Type: Facade
Construction, defaultConstruction,
defaultMat_0.25_defaultConstruction;

Construction, defaultConstruction_FLIPPED,
defaultMat_0.25_defaultConstruction;



! Materials
!- Material: defaultMat Type: Concrete
Material, defaultMat_0.25_defaultConstruction ,                !- Material name 
 Rough,                                         !- Roughness
 0.25,   !- @defaultConstruction:defaultMat-Thickness@ [m]
 2.3,   !- @defaultConstruction:defaultMat-Conductivity@ [W/m-K]
 2400,   !- @defaultConstruction:defaultMat-Density@ [kg/m3]
 840,   !- @defaultConstruction:defaultMat-SpecificHeat@ [J/kg-K]
 0.9,   !- @defaultConstruction:defaultMat-ThermalEmittance@
 0.7,   !- @defaultConstruction:defaultMat-SolarAbsorptance@
 0.7;   !- @defaultConstruction:defaultMat-VisibleAbsorptance@



! 90.1-2019 Nonresidential CZ 0 Exterior Wall (Mass) Type: Facade
Construction, 90.1-2019 Nonresidential CZ 0 Exterior Wall (Mass),
Stucco_0.025_90.1-2019 Nonresidential CZ 0 Exterior Wall (Mass),
Concrete_0.203_90.1-2019 Nonresidential CZ 0 Exterior Wall (Mass),
Mineral Wool_0.006340168156952033_90.1-2019 Nonresidential CZ 0 Exterior Wall (Mass),
Plaster_0.013_90.1-2019 Nonresidential CZ 0 Exterior Wall (Mass);

Construction, 90.1-2019 Nonresidential CZ 0 Exterior Wall (Mass)_FLIPPED,
Plaster_0.013_90.1-2019 Nonresidential CZ 0 Exterior Wall (Mass),
Mineral Wool_0.006340168156952033_90.1-2019 Nonresidential CZ 0 Exterior Wall (Mass),
Concrete_0.203_90.1-2019 Nonresidential CZ 0 Exterior Wall (Mass),
Stucco_0.025_90.1-2019 Nonresidential CZ 0 Exterior Wall (Mass);



! Materials
!- Material: Stucco Type: Plaster
Material, Stucco_0.025_90.1-2019 Nonresidential CZ 0 Exterior Wall (Mass) ,                !- Material name 
 Smooth,                                         !- Roughness
 0.025,   !- @90.1-2019 Nonresidential CZ 0 Exterior Wall (Mass):Stucco-Thickness@ [m]
 0.72,   !- @90.1-2019 Nonresidential CZ 0 Exterior Wall (Mass):Stucco-Conductivity@ [W/m-K]
 1856,   !- @90.1-2019 Nonresidential CZ 0 Exterior Wall (Mass):Stucco-Density@ [kg/m3]
 840,   !- @90.1-2019 Nonresidential CZ 0 Exterior Wall (Mass):Stucco-SpecificHeat@ [J/kg-K]
 0.9,   !- @90.1-2019 Nonresidential CZ 0 Exterior Wall (Mass):Stucco-ThermalEmittance@
 0.7,   !- @90.1-2019 Nonresidential CZ 0 Exterior Wall (Mass):Stucco-SolarAbsorptance@
 0.7;   !- @90.1-2019 Nonresidential CZ 0 Exterior Wall (Mass):Stucco-VisibleAbsorptance@

!- Material: Concrete Type: Concrete
Material, Concrete_0.203_90.1-2019 Nonresidential CZ 0 Exterior Wall (Mass) ,                !- Material name 
 Rough,                                         !- Roughness
 0.203,   !- @90.1-2019 Nonresidential CZ 0 Exterior Wall (Mass):Concrete-Thickness@ [m]
 2,   !- @90.1-2019 Nonresidential CZ 0 Exterior Wall (Mass):Concrete-Conductivity@ [W/m-K]
 2400,   !- @90.1-2019 Nonresidential CZ 0 Exterior Wall (Mass):Concrete-Density@ [kg/m3]
 950,   !- @90.1-2019 Nonresidential CZ 0 Exterior Wall (Mass):Concrete-SpecificHeat@ [J/kg-K]
 0.9,   !- @90.1-2019 Nonresidential CZ 0 Exterior Wall (Mass):Concrete-ThermalEmittance@
 0.7,   !- @90.1-2019 Nonresidential CZ 0 Exterior Wall (Mass):Concrete-SolarAbsorptance@
 0.7;   !- @90.1-2019 Nonresidential CZ 0 Exterior Wall (Mass):Concrete-VisibleAbsorptance@

!- Material: Mineral Wool Type: Insulation
Material, Mineral Wool_0.006340168156952033_90.1-2019 Nonresidential CZ 0 Exterior Wall (Mass) ,                !- Material name 
 Rough,                                         !- Roughness
 0.006340168156952033,   !- @90.1-2019 Nonresidential CZ 0 Exterior Wall (Mass):Mineral Wool-Thickness@ [m]
 0.041,   !- @90.1-2019 Nonresidential CZ 0 Exterior Wall (Mass):Mineral Wool-Conductivity@ [W/m-K]
 155,   !- @90.1-2019 Nonresidential CZ 0 Exterior Wall (Mass):Mineral Wool-Density@ [kg/m3]
 1130,   !- @90.1-2019 Nonresidential CZ 0 Exterior Wall (Mass):Mineral Wool-SpecificHeat@ [J/kg-K]
 0.9,   !- @90.1-2019 Nonresidential CZ 0 Exterior Wall (Mass):Mineral Wool-ThermalEmittance@
 0.7,   !- @90.1-2019 Nonresidential CZ 0 Exterior Wall (Mass):Mineral Wool-SolarAbsorptance@
 0.7;   !- @90.1-2019 Nonresidential CZ 0 Exterior Wall (Mass):Mineral Wool-VisibleAbsorptance@

!- Material: Plaster Type: Screed
Material, Plaster_0.013_90.1-2019 Nonresidential CZ 0 Exterior Wall (Mass) ,                !- Material name 
 Rough,                                         !- Roughness
 0.013,   !- @90.1-2019 Nonresidential CZ 0 Exterior Wall (Mass):Plaster-Thickness@ [m]
 1,   !- @90.1-2019 Nonresidential CZ 0 Exterior Wall (Mass):Plaster-Conductivity@ [W/m-K]
 2000,   !- @90.1-2019 Nonresidential CZ 0 Exterior Wall (Mass):Plaster-Density@ [kg/m3]
 1130,   !- @90.1-2019 Nonresidential CZ 0 Exterior Wall (Mass):Plaster-SpecificHeat@ [J/kg-K]
 0.9,   !- @90.1-2019 Nonresidential CZ 0 Exterior Wall (Mass):Plaster-ThermalEmittance@
 0.7,   !- @90.1-2019 Nonresidential CZ 0 Exterior Wall (Mass):Plaster-SolarAbsorptance@
 0.7;   !- @90.1-2019 Nonresidential CZ 0 Exterior Wall (Mass):Plaster-VisibleAbsorptance@



! 90.1-2019 Nonresidential CZ 0 Exterior Roof (Mass) Type: Roof
Construction, 90.1-2019 Nonresidential CZ 0 Exterior Roof (Mass),
Vaporpermeable Felt_0.003_90.1-2019 Nonresidential CZ 0 Exterior Roof (Mass),
XPS Board_0.14713995500631277_90.1-2019 Nonresidential CZ 0 Exterior Roof (Mass),
Concrete_0.203_90.1-2019 Nonresidential CZ 0 Exterior Roof (Mass),
Acoustic Tile_0.005_90.1-2019 Nonresidential CZ 0 Exterior Roof (Mass);

Construction, 90.1-2019 Nonresidential CZ 0 Exterior Roof (Mass)_FLIPPED,
Acoustic Tile_0.005_90.1-2019 Nonresidential CZ 0 Exterior Roof (Mass),
Concrete_0.203_90.1-2019 Nonresidential CZ 0 Exterior Roof (Mass),
XPS Board_0.14713995500631277_90.1-2019 Nonresidential CZ 0 Exterior Roof (Mass),
Vaporpermeable Felt_0.003_90.1-2019 Nonresidential CZ 0 Exterior Roof (Mass);



! Materials
!- Material: Vaporpermeable Felt Type: Finishes
Material, Vaporpermeable Felt_0.003_90.1-2019 Nonresidential CZ 0 Exterior Roof (Mass) ,                !- Material name 
 Rough,                                         !- Roughness
 0.003,   !- @90.1-2019 Nonresidential CZ 0 Exterior Roof (Mass):Vaporpermeable Felt-Thickness@ [m]
 0.909090909,   !- @90.1-2019 Nonresidential CZ 0 Exterior Roof (Mass):Vaporpermeable Felt-Conductivity@ [W/m-K]
 0.5,   !- @90.1-2019 Nonresidential CZ 0 Exterior Roof (Mass):Vaporpermeable Felt-Density@ [kg/m3]
 1800,   !- @90.1-2019 Nonresidential CZ 0 Exterior Roof (Mass):Vaporpermeable Felt-SpecificHeat@ [J/kg-K]
 0.9,   !- @90.1-2019 Nonresidential CZ 0 Exterior Roof (Mass):Vaporpermeable Felt-ThermalEmittance@
 0.7,   !- @90.1-2019 Nonresidential CZ 0 Exterior Roof (Mass):Vaporpermeable Felt-SolarAbsorptance@
 0.7;   !- @90.1-2019 Nonresidential CZ 0 Exterior Roof (Mass):Vaporpermeable Felt-VisibleAbsorptance@

!- Material: XPS Board Type: Insulation
Material, XPS Board_0.14713995500631277_90.1-2019 Nonresidential CZ 0 Exterior Roof (Mass) ,                !- Material name 
 Rough,                                         !- Roughness
 0.14713995500631277,   !- @90.1-2019 Nonresidential CZ 0 Exterior Roof (Mass):XPS Board-Thickness@ [m]
 0.034,   !- @90.1-2019 Nonresidential CZ 0 Exterior Roof (Mass):XPS Board-Conductivity@ [W/m-K]
 35,   !- @90.1-2019 Nonresidential CZ 0 Exterior Roof (Mass):XPS Board-Density@ [kg/m3]
 1400,   !- @90.1-2019 Nonresidential CZ 0 Exterior Roof (Mass):XPS Board-SpecificHeat@ [J/kg-K]
 0.9,   !- @90.1-2019 Nonresidential CZ 0 Exterior Roof (Mass):XPS Board-ThermalEmittance@
 0.7,   !- @90.1-2019 Nonresidential CZ 0 Exterior Roof (Mass):XPS Board-SolarAbsorptance@
 0.7;   !- @90.1-2019 Nonresidential CZ 0 Exterior Roof (Mass):XPS Board-VisibleAbsorptance@

!- Material: Concrete Type: Concrete
Material, Concrete_0.203_90.1-2019 Nonresidential CZ 0 Exterior Roof (Mass) ,                !- Material name 
 Rough,                                         !- Roughness
 0.203,   !- @90.1-2019 Nonresidential CZ 0 Exterior Roof (Mass):Concrete-Thickness@ [m]
 2,   !- @90.1-2019 Nonresidential CZ 0 Exterior Roof (Mass):Concrete-Conductivity@ [W/m-K]
 2400,   !- @90.1-2019 Nonresidential CZ 0 Exterior Roof (Mass):Concrete-Density@ [kg/m3]
 950,   !- @90.1-2019 Nonresidential CZ 0 Exterior Roof (Mass):Concrete-SpecificHeat@ [J/kg-K]
 0.9,   !- @90.1-2019 Nonresidential CZ 0 Exterior Roof (Mass):Concrete-ThermalEmittance@
 0.7,   !- @90.1-2019 Nonresidential CZ 0 Exterior Roof (Mass):Concrete-SolarAbsorptance@
 0.7;   !- @90.1-2019 Nonresidential CZ 0 Exterior Roof (Mass):Concrete-VisibleAbsorptance@

!- Material: Acoustic Tile Type: Finishes
Material, Acoustic Tile_0.005_90.1-2019 Nonresidential CZ 0 Exterior Roof (Mass) ,                !- Material name 
 MediumSmooth,                                         !- Roughness
 0.005,   !- @90.1-2019 Nonresidential CZ 0 Exterior Roof (Mass):Acoustic Tile-Thickness@ [m]
 0.06,   !- @90.1-2019 Nonresidential CZ 0 Exterior Roof (Mass):Acoustic Tile-Conductivity@ [W/m-K]
 368,   !- @90.1-2019 Nonresidential CZ 0 Exterior Roof (Mass):Acoustic Tile-Density@ [kg/m3]
 590,   !- @90.1-2019 Nonresidential CZ 0 Exterior Roof (Mass):Acoustic Tile-SpecificHeat@ [J/kg-K]
 0.9,   !- @90.1-2019 Nonresidential CZ 0 Exterior Roof (Mass):Acoustic Tile-ThermalEmittance@
 0.7,   !- @90.1-2019 Nonresidential CZ 0 Exterior Roof (Mass):Acoustic Tile-SolarAbsorptance@
 0.7;   !- @90.1-2019 Nonresidential CZ 0 Exterior Roof (Mass):Acoustic Tile-VisibleAbsorptance@



! 90.1-2019 Nonresidential CZ 0 Ground Slab (Mass) Type: GroundFloor
Construction, 90.1-2019 Nonresidential CZ 0 Ground Slab (Mass),
XPS Board_0.018543333333333335_90.1-2019 Nonresidential CZ 0 Ground Slab (Mass),
Concrete_0.203_90.1-2019 Nonresidential CZ 0 Ground Slab (Mass),
Carpet_0.02_90.1-2019 Nonresidential CZ 0 Ground Slab (Mass);

Construction, 90.1-2019 Nonresidential CZ 0 Ground Slab (Mass)_FLIPPED,
Carpet_0.02_90.1-2019 Nonresidential CZ 0 Ground Slab (Mass),
Concrete_0.203_90.1-2019 Nonresidential CZ 0 Ground Slab (Mass),
XPS Board_0.018543333333333335_90.1-2019 Nonresidential CZ 0 Ground Slab (Mass);



! Materials
!- Material: XPS Board Type: Insulation
Material, XPS Board_0.018543333333333335_90.1-2019 Nonresidential CZ 0 Ground Slab (Mass) ,                !- Material name 
 Rough,                                         !- Roughness
 0.018543333333333335,   !- @90.1-2019 Nonresidential CZ 0 Ground Slab (Mass):XPS Board-Thickness@ [m]
 0.034,   !- @90.1-2019 Nonresidential CZ 0 Ground Slab (Mass):XPS Board-Conductivity@ [W/m-K]
 35,   !- @90.1-2019 Nonresidential CZ 0 Ground Slab (Mass):XPS Board-Density@ [kg/m3]
 1400,   !- @90.1-2019 Nonresidential CZ 0 Ground Slab (Mass):XPS Board-SpecificHeat@ [J/kg-K]
 0.9,   !- @90.1-2019 Nonresidential CZ 0 Ground Slab (Mass):XPS Board-ThermalEmittance@
 0.7,   !- @90.1-2019 Nonresidential CZ 0 Ground Slab (Mass):XPS Board-SolarAbsorptance@
 0.7;   !- @90.1-2019 Nonresidential CZ 0 Ground Slab (Mass):XPS Board-VisibleAbsorptance@

!- Material: Concrete Type: Concrete
Material, Concrete_0.203_90.1-2019 Nonresidential CZ 0 Ground Slab (Mass) ,                !- Material name 
 Rough,                                         !- Roughness
 0.203,   !- @90.1-2019 Nonresidential CZ 0 Ground Slab (Mass):Concrete-Thickness@ [m]
 2,   !- @90.1-2019 Nonresidential CZ 0 Ground Slab (Mass):Concrete-Conductivity@ [W/m-K]
 2400,   !- @90.1-2019 Nonresidential CZ 0 Ground Slab (Mass):Concrete-Density@ [kg/m3]
 950,   !- @90.1-2019 Nonresidential CZ 0 Ground Slab (Mass):Concrete-SpecificHeat@ [J/kg-K]
 0.9,   !- @90.1-2019 Nonresidential CZ 0 Ground Slab (Mass):Concrete-ThermalEmittance@
 0.7,   !- @90.1-2019 Nonresidential CZ 0 Ground Slab (Mass):Concrete-SolarAbsorptance@
 0.7;   !- @90.1-2019 Nonresidential CZ 0 Ground Slab (Mass):Concrete-VisibleAbsorptance@

!- Material: Carpet Type: Finishes
Material, Carpet_0.02_90.1-2019 Nonresidential CZ 0 Ground Slab (Mass) ,                !- Material name 
 MediumRough,                                         !- Roughness
 0.02,   !- @90.1-2019 Nonresidential CZ 0 Ground Slab (Mass):Carpet-Thickness@ [m]
 0.06,   !- @90.1-2019 Nonresidential CZ 0 Ground Slab (Mass):Carpet-Conductivity@ [W/m-K]
 288,   !- @90.1-2019 Nonresidential CZ 0 Ground Slab (Mass):Carpet-Density@ [kg/m3]
 1380,   !- @90.1-2019 Nonresidential CZ 0 Ground Slab (Mass):Carpet-SpecificHeat@ [J/kg-K]
 0.9,   !- @90.1-2019 Nonresidential CZ 0 Ground Slab (Mass):Carpet-ThermalEmittance@
 0.7,   !- @90.1-2019 Nonresidential CZ 0 Ground Slab (Mass):Carpet-SolarAbsorptance@
 0.7;   !- @90.1-2019 Nonresidential CZ 0 Ground Slab (Mass):Carpet-VisibleAbsorptance@




! ------------ GLAZING  


Construction,
    90.1-2019 Nonresidential CZ 0 Glazing (Operable),              !- Name
    90.1-2019 Nonresidential CZ 0 Glazing (Operable)Window;

WindowMaterial:SimpleGlazingSystem,
90.1-2019 Nonresidential CZ 0 Glazing (Operable)Window , !-Name
3.520523271462259 ,    !- @90.1-2019 Nonresidential CZ 0 Glazing (Operable)-UValue@
0.2 ,    !- @90.1-2019 Nonresidential CZ 0 Glazing (Operable)-SolarHeatGainCoefficient@
0.22000000000000003;    !- @90.1-2019 Nonresidential CZ 0 Glazing (Operable)-VisibleTransmittance@


! ------------ SCHEDULES ------------



Schedule:Constant,
  AllOn,                     !- Name
  Fraction,                  !- Schedule Type Limits Name
  1;                       !- Value




Schedule:Constant,
  AirSpeed 0,                     !- Name
  AnyNumber,                  !- Schedule Type Limits Name
  0;                       !- Value



Schedule:Day:Hourly, f603fb4c-c7f5-497c-a5ff-b33782d0d8b6, AnyNumber,412.77,412.77167,412.77333,412.775,412.77667,412.77833,412.78,412.78167,412.78333,412.785,412.78667,412.78833,412.79,412.79167,412.79333,412.795,412.79667,412.79833,412.8,412.80167,412.80333,412.805,412.80667,412.80833;

Schedule:Day:Hourly, 2b48337c-9f18-4644-badd-29cdf0631df4, AnyNumber,412.81,412.81125,412.8125,412.81375,412.815,412.81625,412.8175,412.81875,412.82,412.82125,412.8225,412.82375,412.825,412.82625,412.8275,412.82875,412.83,412.83125,412.8325,412.83375,412.835,412.83625,412.8375,412.83875;

Schedule:Day:Hourly, 88dc6e24-de6e-4ff9-92b9-6bb5f0d3cca8, AnyNumber,412.84,412.84167,412.84333,412.845,412.84667,412.84833,412.85,412.85167,412.85333,412.855,412.85667,412.85833,412.86,412.86167,412.86333,412.865,412.86667,412.86833,412.87,412.87167,412.87333,412.875,412.87667,412.87833;

Schedule:Day:Hourly, c14fa044-c178-446f-8b61-6782a287cf6b, AnyNumber,412.88,412.88125,412.8825,412.88375,412.885,412.88625,412.8875,412.88875,412.89,412.89125,412.8925,412.89375,412.895,412.89625,412.8975,412.89875,412.9,412.90125,412.9025,412.90375,412.905,412.90625,412.9075,412.90875;

Schedule:Day:Hourly, 8c586e85-1d03-4805-a352-f54ea5b8507f, AnyNumber,412.91,412.91167,412.91333,412.915,412.91667,412.91833,412.92,412.92167,412.92333,412.925,412.92667,412.92833,412.93,412.93167,412.93333,412.935,412.93667,412.93833,412.94,412.94167,412.94333,412.945,412.94667,412.94833;

Schedule:Day:Hourly, 4e7b190f-be5e-427d-950d-935a63f548c4, AnyNumber,412.95,412.95125,412.9525,412.95375,412.955,412.95625,412.9575,412.95875,412.96,412.96125,412.9625,412.96375,412.965,412.96625,412.9675,412.96875,412.97,412.97125,412.9725,412.97375,412.975,412.97625,412.9775,412.97875;

Schedule:Day:Hourly, f2fe9c51-7452-49c7-878f-786ea7e27336, AnyNumber,412.98,412.98125,412.9825,412.98375,412.985,412.98625,412.9875,412.98875,412.99,412.99125,412.9925,412.99375,412.995,412.99625,412.9975,412.99875,413,413.00125,413.0025,413.00375,413.005,413.00625,413.0075,413.00875;

Schedule:Day:Hourly, e040591a-8bdf-4198-b6a9-1fadeeec3558, AnyNumber,413.01,413.01125,413.0125,413.01375,413.015,413.01625,413.0175,413.01875,413.02,413.02125,413.0225,413.02375,413.025,413.02625,413.0275,413.02875,413.03,413.03125,413.0325,413.03375,413.035,413.03625,413.0375,413.03875;

Schedule:Day:Hourly, 68731062-6c02-45d2-b86f-d65aff7c3800, AnyNumber,413.04,413.04167,413.04333,413.045,413.04667,413.04833,413.05,413.05167,413.05333,413.055,413.05667,413.05833,413.06,413.06167,413.06333,413.065,413.06667,413.06833,413.07,413.07167,413.07333,413.075,413.07667,413.07833;

Schedule:Day:Hourly, bfa0f2e7-df6e-4ed4-8df3-c2f6cd60c90c, AnyNumber,413.08,413.08125,413.0825,413.08375,413.085,413.08625,413.0875,413.08875,413.09,413.09125,413.0925,413.09375,413.095,413.09625,413.0975,413.09875,413.1,413.10125,413.1025,413.10375,413.105,413.10625,413.1075,413.10875;

Schedule:Day:Hourly, 93518041-7e3e-4ef8-b8e0-83750d1f27de, AnyNumber,413.11,413.11125,413.1125,413.11375,413.115,413.11625,413.1175,413.11875,413.12,413.12125,413.1225,413.12375,413.125,413.12625,413.1275,413.12875,413.13,413.13125,413.1325,413.13375,413.135,413.13625,413.1375,413.13875;

Schedule:Day:Hourly, 081974b6-d0e6-4484-b799-05a88c40cdbd, AnyNumber,413.14,413.14125,413.1425,413.14375,413.145,413.14625,413.1475,413.14875,413.15,413.15125,413.1525,413.15375,413.155,413.15625,413.1575,413.15875,413.16,413.16125,413.1625,413.16375,413.165,413.16625,413.1675,413.16875;

Schedule:Day:Hourly, 153a8c0c-038d-4c97-9288-419843f92193, AnyNumber,413.17,413.17125,413.1725,413.17375,413.175,413.17625,413.1775,413.17875,413.18,413.18125,413.1825,413.18375,413.185,413.18625,413.1875,413.18875,413.19,413.19125,413.1925,413.19375,413.195,413.19625,413.1975,413.19875;

Schedule:Day:Hourly, 6bba0d35-dbb5-4f94-8cec-9e1b13297348, AnyNumber,413.2,413.20125,413.2025,413.20375,413.205,413.20625,413.2075,413.20875,413.21,413.21125,413.2125,413.21375,413.215,413.21625,413.2175,413.21875,413.22,413.22125,413.2225,413.22375,413.225,413.22625,413.2275,413.22875;

Schedule:Day:Hourly, 06920860-7269-4281-9f02-e85ff526e8b6, AnyNumber,413.23,413.23083,413.23167,413.2325,413.23333,413.23417,413.235,413.23583,413.23667,413.2375,413.23833,413.23917,413.24,413.24083,413.24167,413.2425,413.24333,413.24417,413.245,413.24583,413.24667,413.2475,413.24833,413.24917;

Schedule:Day:Hourly, 14aa4d80-26d4-4771-868f-941b3c087586, AnyNumber,413.25,413.25125,413.2525,413.25375,413.255,413.25625,413.2575,413.25875,413.26,413.26125,413.2625,413.26375,413.265,413.26625,413.2675,413.26875,413.27,413.27125,413.2725,413.27375,413.275,413.27625,413.2775,413.27875;

Schedule:Day:Hourly, b63e6846-f359-47af-a89a-5352c8944126, AnyNumber,413.28,413.28125,413.2825,413.28375,413.285,413.28625,413.2875,413.28875,413.29,413.29125,413.2925,413.29375,413.295,413.29625,413.2975,413.29875,413.3,413.30125,413.3025,413.30375,413.305,413.30625,413.3075,413.30875;

Schedule:Day:Hourly, 51b6eda7-064c-4040-bc7e-150ffd9d1271, AnyNumber,413.31,413.31083,413.31167,413.3125,413.31333,413.31417,413.315,413.31583,413.31667,413.3175,413.31833,413.31917,413.32,413.32083,413.32167,413.3225,413.32333,413.32417,413.325,413.32583,413.32667,413.3275,413.32833,413.32917;

Schedule:Day:Hourly, faa2c348-37ea-4b6f-ad56-944efc1aff85, AnyNumber,413.33,413.33125,413.3325,413.33375,413.335,413.33625,413.3375,413.33875,413.34,413.34125,413.3425,413.34375,413.345,413.34625,413.3475,413.34875,413.35,413.35125,413.3525,413.35375,413.355,413.35625,413.3575,413.35875;

Schedule:Day:Hourly, bd4c6bbf-2de1-433a-93c3-e7a14e7e761c, AnyNumber,413.36,413.36083,413.36167,413.3625,413.36333,413.36417,413.365,413.36583,413.36667,413.3675,413.36833,413.36917,413.37,413.37083,413.37167,413.3725,413.37333,413.37417,413.375,413.37583,413.37667,413.3775,413.37833,413.37917;

Schedule:Day:Hourly, 3a52997c-606a-435c-bc36-1e181a4d8638, AnyNumber,413.38,413.38125,413.3825,413.38375,413.385,413.38625,413.3875,413.38875,413.39,413.39125,413.3925,413.39375,413.395,413.39625,413.3975,413.39875,413.4,413.40125,413.4025,413.40375,413.405,413.40625,413.4075,413.40875;

Schedule:Day:Hourly, a12cfd09-b737-4a7a-b56b-aca166c00a01, AnyNumber,413.41,413.41083,413.41167,413.4125,413.41333,413.41417,413.415,413.41583,413.41667,413.4175,413.41833,413.41917,413.42,413.42083,413.42167,413.4225,413.42333,413.42417,413.425,413.42583,413.42667,413.4275,413.42833,413.42917;

Schedule:Day:Hourly, 16794170-7b28-4429-9ffe-b0477a9d3c2d, AnyNumber,413.43,413.43083,413.43167,413.4325,413.43333,413.43417,413.435,413.43583,413.43667,413.4375,413.43833,413.43917,413.44,413.44083,413.44167,413.4425,413.44333,413.44417,413.445,413.44583,413.44667,413.4475,413.44833,413.44917;

Schedule:Day:Hourly, 1c3d206f-ce83-49ee-9c4f-13eb9b864d22, AnyNumber,413.45,413.45083,413.45167,413.4525,413.45333,413.45417,413.455,413.45583,413.45667,413.4575,413.45833,413.45917,413.46,413.46083,413.46167,413.4625,413.46333,413.46417,413.465,413.46583,413.46667,413.4675,413.46833,413.46917;

Schedule:Day:Hourly, 8a5a2539-d2a4-46bd-95e6-29854914538d, AnyNumber,413.47,413.47083,413.47167,413.4725,413.47333,413.47417,413.475,413.47583,413.47667,413.4775,413.47833,413.47917,413.48,413.48083,413.48167,413.4825,413.48333,413.48417,413.485,413.48583,413.48667,413.4875,413.48833,413.48917;

Schedule:Day:Hourly, d2ac8b2f-5683-40ba-8e47-f5f3173ad32a, AnyNumber,413.49,413.49083,413.49167,413.4925,413.49333,413.49417,413.495,413.49583,413.49667,413.4975,413.49833,413.49917,413.5,413.50083,413.50167,413.5025,413.50333,413.50417,413.505,413.50583,413.50667,413.5075,413.50833,413.50917;

Schedule:Day:Hourly, 9d7dddaa-2c0b-4d29-9419-3460aaae0584, AnyNumber,413.51,413.51042,413.51083,413.51125,413.51167,413.51208,413.5125,413.51292,413.51333,413.51375,413.51417,413.51458,413.515,413.51542,413.51583,413.51625,413.51667,413.51708,413.5175,413.51792,413.51833,413.51875,413.51917,413.51958;

Schedule:Day:Hourly, 74a6092b-e6b7-4edc-ad60-b4f146b191a2, AnyNumber,413.52,413.52083,413.52167,413.5225,413.52333,413.52417,413.525,413.52583,413.52667,413.5275,413.52833,413.52917,413.53,413.53083,413.53167,413.5325,413.53333,413.53417,413.535,413.53583,413.53667,413.5375,413.53833,413.53917;

Schedule:Day:Hourly, 9801fe02-073e-487a-98b8-f41d66d2738e, AnyNumber,413.54,413.54083,413.54167,413.5425,413.54333,413.54417,413.545,413.54583,413.54667,413.5475,413.54833,413.54917,413.55,413.55083,413.55167,413.5525,413.55333,413.55417,413.555,413.55583,413.55667,413.5575,413.55833,413.55917;

Schedule:Day:Hourly, f49c1789-452d-4f4a-8b17-1a343262ddfb, AnyNumber,413.56,413.56042,413.56083,413.56125,413.56167,413.56208,413.5625,413.56292,413.56333,413.56375,413.56417,413.56458,413.565,413.56542,413.56583,413.56625,413.56667,413.56708,413.5675,413.56792,413.56833,413.56875,413.56917,413.56958;

Schedule:Day:Hourly, e3887b56-b607-4f7b-9642-58c29c48bc70, AnyNumber,413.57,413.57042,413.57083,413.57125,413.57167,413.57208,413.5725,413.57292,413.57333,413.57375,413.57417,413.57458,413.575,413.57542,413.57583,413.57625,413.57667,413.57708,413.5775,413.57792,413.57833,413.57875,413.57917,413.57958;

Schedule:Day:Hourly, a1528d12-f3db-4c76-aab8-d01f859721ac, AnyNumber,413.58,413.58083,413.58167,413.5825,413.58333,413.58417,413.585,413.58583,413.58667,413.5875,413.58833,413.58917,413.59,413.59083,413.59167,413.5925,413.59333,413.59417,413.595,413.59583,413.59667,413.5975,413.59833,413.59917;

Schedule:Day:Hourly, 5aee304e-f614-4370-8145-80b60b34573d, AnyNumber,413.6,413.60042,413.60083,413.60125,413.60167,413.60208,413.6025,413.60292,413.60333,413.60375,413.60417,413.60458,413.605,413.60542,413.60583,413.60625,413.60667,413.60708,413.6075,413.60792,413.60833,413.60875,413.60917,413.60958;

Schedule:Day:Hourly, 1ce94b9c-d27b-4993-b6a3-5839e187352c, AnyNumber,413.61,413.61042,413.61083,413.61125,413.61167,413.61208,413.6125,413.61292,413.61333,413.61375,413.61417,413.61458,413.615,413.61542,413.61583,413.61625,413.61667,413.61708,413.6175,413.61792,413.61833,413.61875,413.61917,413.61958;

Schedule:Day:Hourly, 989262c7-6180-44f8-94ec-4341351aea4a, AnyNumber,413.62,413.62042,413.62083,413.62125,413.62167,413.62208,413.6225,413.62292,413.62333,413.62375,413.62417,413.62458,413.625,413.62542,413.62583,413.62625,413.62667,413.62708,413.6275,413.62792,413.62833,413.62875,413.62917,413.62958;

Schedule:Day:Hourly, 1b5c0a22-35ba-47e8-823b-7516518e0e19, AnyNumber,413.63,413.63042,413.63083,413.63125,413.63167,413.63208,413.6325,413.63292,413.63333,413.63375,413.63417,413.63458,413.635,413.63542,413.63583,413.63625,413.63667,413.63708,413.6375,413.63792,413.63833,413.63875,413.63917,413.63958;

Schedule:Day:Hourly, 3292d329-cfd3-4e8a-aa78-0a81c9c0cd26, AnyNumber,413.64,413.64042,413.64083,413.64125,413.64167,413.64208,413.6425,413.64292,413.64333,413.64375,413.64417,413.64458,413.645,413.64542,413.64583,413.64625,413.64667,413.64708,413.6475,413.64792,413.64833,413.64875,413.64917,413.64958;

Schedule:Day:Hourly, ffe3b8d8-77c1-4444-b577-736c3c594739, AnyNumber,413.65,413.65042,413.65083,413.65125,413.65167,413.65208,413.6525,413.65292,413.65333,413.65375,413.65417,413.65458,413.655,413.65542,413.65583,413.65625,413.65667,413.65708,413.6575,413.65792,413.65833,413.65875,413.65917,413.65958;

Schedule:Day:Hourly, 0b17781b-e8f7-427b-83ff-f366c16bab01, AnyNumber,413.66,413.66,413.66,413.66,413.66,413.66,413.66,413.66,413.66,413.66,413.66,413.66,413.66,413.66,413.66,413.66,413.66,413.66,413.66,413.66,413.66,413.66,413.66,413.66;

Schedule:Day:Hourly, 633321c3-0333-4aca-a81f-354a7dbe9b68, AnyNumber,413.66,413.66042,413.66083,413.66125,413.66167,413.66208,413.6625,413.66292,413.66333,413.66375,413.66417,413.66458,413.665,413.66542,413.66583,413.66625,413.66667,413.66708,413.6675,413.66792,413.66833,413.66875,413.66917,413.66958;

Schedule:Day:Hourly, 18da8192-6794-4b2c-b69c-2b4a69d6eabb, AnyNumber,413.67,413.67042,413.67083,413.67125,413.67167,413.67208,413.6725,413.67292,413.67333,413.67375,413.67417,413.67458,413.675,413.67542,413.67583,413.67625,413.67667,413.67708,413.6775,413.67792,413.67833,413.67875,413.67917,413.67958;

Schedule:Day:Hourly, c91d8730-ff56-433e-884c-5d3644ed820b, AnyNumber,413.68,413.68,413.68,413.68,413.68,413.68,413.68,413.68,413.68,413.68,413.68,413.68,413.68,413.68,413.68,413.68,413.68,413.68,413.68,413.68,413.68,413.68,413.68,413.68;

Schedule:Day:Hourly, b790b2c5-d878-4f53-9090-f3a88fa4c5d9, AnyNumber,413.68,413.68042,413.68083,413.68125,413.68167,413.68208,413.6825,413.68292,413.68333,413.68375,413.68417,413.68458,413.685,413.68542,413.68583,413.68625,413.68667,413.68708,413.6875,413.68792,413.68833,413.68875,413.68917,413.68958;

Schedule:Day:Hourly, ec522b24-5758-4bde-a0e2-30a6e782b783, AnyNumber,413.69,413.69,413.69,413.69,413.69,413.69,413.69,413.69,413.69,413.69,413.69,413.69,413.69,413.69,413.69,413.69,413.69,413.69,413.69,413.69,413.69,413.69,413.69,413.69;

Schedule:Day:Hourly, dc520dbb-7559-4155-9ae0-4fcff78811b0, AnyNumber,413.69,413.69042,413.69083,413.69125,413.69167,413.69208,413.6925,413.69292,413.69333,413.69375,413.69417,413.69458,413.695,413.69542,413.69583,413.69625,413.69667,413.69708,413.6975,413.69792,413.69833,413.69875,413.69917,413.69958;

Schedule:Day:Hourly, 76084aa3-4dc8-49ab-b5fb-1ac00281d631, AnyNumber,413.7,413.7,413.7,413.7,413.7,413.7,413.7,413.7,413.7,413.7,413.7,413.7,413.7,413.7,413.7,413.7,413.7,413.7,413.7,413.7,413.7,413.7,413.7,413.7;

Schedule:Day:Hourly, ba8a8ad7-4ee7-471e-b853-12ada14777e9, AnyNumber,413.7,413.70042,413.70083,413.70125,413.70167,413.70208,413.7025,413.70292,413.70333,413.70375,413.70417,413.70458,413.705,413.70542,413.70583,413.70625,413.70667,413.70708,413.7075,413.70792,413.70833,413.70875,413.70917,413.70958;

Schedule:Day:Hourly, 426b88a4-9ff8-4bc8-ad5d-b87382b094c6, AnyNumber,413.71,413.71,413.71,413.71,413.71,413.71,413.71,413.71,413.71,413.71,413.71,413.71,413.71,413.71,413.71,413.71,413.71,413.71,413.71,413.71,413.71,413.71,413.71,413.71;

Schedule:Day:Hourly, 22744959-2a7b-4481-a90d-4c45b49d346b, AnyNumber,413.71,413.71042,413.71083,413.71125,413.71167,413.71208,413.7125,413.71292,413.71333,413.71375,413.71417,413.71458,413.715,413.71542,413.71583,413.71625,413.71667,413.71708,413.7175,413.71792,413.71833,413.71875,413.71917,413.71958;

Schedule:Day:Hourly, 518c71ef-576d-4866-8448-288decbea279, AnyNumber,413.72,413.72,413.72,413.72,413.72,413.72,413.72,413.72,413.72,413.72,413.72,413.72,413.72,413.72,413.72,413.72,413.72,413.72,413.72,413.72,413.72,413.72,413.72,413.72;

Schedule:Day:Hourly, 988a08af-f1ed-43dd-ae12-e34762ce20de, AnyNumber,413.72,413.72042,413.72083,413.72125,413.72167,413.72208,413.7225,413.72292,413.72333,413.72375,413.72417,413.72458,413.725,413.72542,413.72583,413.72625,413.72667,413.72708,413.7275,413.72792,413.72833,413.72875,413.72917,413.72958;

Schedule:Day:Hourly, 90ff844e-c3ca-4357-b871-8e50611d2c3d, AnyNumber,413.73,413.73,413.73,413.73,413.73,413.73,413.73,413.73,413.73,413.73,413.73,413.73,413.73,413.73,413.73,413.73,413.73,413.73,413.73,413.73,413.73,413.73,413.73,413.73;

Schedule:Day:Hourly, 60eeee28-0358-4501-9f7f-1ec0d0beb9e2, AnyNumber,413.73,413.73042,413.73083,413.73125,413.73167,413.73208,413.7325,413.73292,413.73333,413.73375,413.73417,413.73458,413.735,413.73542,413.73583,413.73625,413.73667,413.73708,413.7375,413.73792,413.73833,413.73875,413.73917,413.73958;

Schedule:Day:Hourly, 87ad1da7-06d4-4696-9e8c-e0513b14355f, AnyNumber,413.74,413.74,413.74,413.74,413.74,413.74,413.74,413.74,413.74,413.74,413.74,413.74,413.74,413.74,413.74,413.74,413.74,413.74,413.74,413.74,413.74,413.74,413.74,413.74;

Schedule:Day:Hourly, dd81eb34-6018-4b48-8ee8-2bb10b116720, AnyNumber,413.74,413.74042,413.74083,413.74125,413.74167,413.74208,413.7425,413.74292,413.74333,413.74375,413.74417,413.74458,413.745,413.74542,413.74583,413.74625,413.74667,413.74708,413.7475,413.74792,413.74833,413.74875,413.74917,413.74958;

Schedule:Day:Hourly, d99f43e1-50da-42d3-b439-249795257bcc, AnyNumber,413.75,413.75,413.75,413.75,413.75,413.75,413.75,413.75,413.75,413.75,413.75,413.75,413.75,413.75,413.75,413.75,413.75,413.75,413.75,413.75,413.75,413.75,413.75,413.75;

Schedule:Day:Hourly, 682bf2d4-337d-4e32-87d1-833225cb54dd, AnyNumber,413.75,413.75042,413.75083,413.75125,413.75167,413.75208,413.7525,413.75292,413.75333,413.75375,413.75417,413.75458,413.755,413.75542,413.75583,413.75625,413.75667,413.75708,413.7575,413.75792,413.75833,413.75875,413.75917,413.75958;

Schedule:Day:Hourly, 336d8257-c245-4742-b62d-a8ed95a270c6, AnyNumber,413.76,413.76,413.76,413.76,413.76,413.76,413.76,413.76,413.76,413.76,413.76,413.76,413.76,413.76,413.76,413.76,413.76,413.76,413.76,413.76,413.76,413.76,413.76,413.76;

Schedule:Day:Hourly, 2b6d8baa-189e-40f1-9ac8-fa927962cb72, AnyNumber,413.76,413.76042,413.76083,413.76125,413.76167,413.76208,413.7625,413.76292,413.76333,413.76375,413.76417,413.76458,413.765,413.76542,413.76583,413.76625,413.76667,413.76708,413.7675,413.76792,413.76833,413.76875,413.76917,413.76958;

Schedule:Day:Hourly, d979f68d-73e2-47c7-a26b-26cb3fe0c480, AnyNumber,413.77,413.77042,413.77083,413.77125,413.77167,413.77208,413.7725,413.77292,413.77333,413.77375,413.77417,413.77458,413.775,413.77542,413.77583,413.77625,413.77667,413.77708,413.7775,413.77792,413.77833,413.77875,413.77917,413.77958;

Schedule:Day:Hourly, e79251cc-e5a6-4b1c-916f-2c133997457f, AnyNumber,413.78,413.78,413.78,413.78,413.78,413.78,413.78,413.78,413.78,413.78,413.78,413.78,413.78,413.78,413.78,413.78,413.78,413.78,413.78,413.78,413.78,413.78,413.78,413.78;

Schedule:Day:Hourly, 05d99482-faa4-46d9-b923-9a093c2bc1ca, AnyNumber,413.78,413.78042,413.78083,413.78125,413.78167,413.78208,413.7825,413.78292,413.78333,413.78375,413.78417,413.78458,413.785,413.78542,413.78583,413.78625,413.78667,413.78708,413.7875,413.78792,413.78833,413.78875,413.78917,413.78958;

Schedule:Day:Hourly, e8eafefb-ae4c-49e7-a3c8-97ccd4a3dc23, AnyNumber,413.79,413.79042,413.79083,413.79125,413.79167,413.79208,413.7925,413.79292,413.79333,413.79375,413.79417,413.79458,413.795,413.79542,413.79583,413.79625,413.79667,413.79708,413.7975,413.79792,413.79833,413.79875,413.79917,413.79958;

Schedule:Day:Hourly, a817ba09-2ef8-4c33-998a-2b836d196e8d, AnyNumber,413.8,413.80042,413.80083,413.80125,413.80167,413.80208,413.8025,413.80292,413.80333,413.80375,413.80417,413.80458,413.805,413.80542,413.80583,413.80625,413.80667,413.80708,413.8075,413.80792,413.80833,413.80875,413.80917,413.80958;

Schedule:Day:Hourly, 343ff936-97b4-4773-9a62-65ee19ca271f, AnyNumber,413.81,413.81042,413.81083,413.81125,413.81167,413.81208,413.8125,413.81292,413.81333,413.81375,413.81417,413.81458,413.815,413.81542,413.81583,413.81625,413.81667,413.81708,413.8175,413.81792,413.81833,413.81875,413.81917,413.81958;

Schedule:Day:Hourly, de18b61b-9ff9-4d7d-b237-bd685cb3f15c, AnyNumber,413.82,413.82042,413.82083,413.82125,413.82167,413.82208,413.8225,413.82292,413.82333,413.82375,413.82417,413.82458,413.825,413.82542,413.82583,413.82625,413.82667,413.82708,413.8275,413.82792,413.82833,413.82875,413.82917,413.82958;

Schedule:Day:Hourly, b5e4381c-dd91-4367-b41d-4eca121e1e97, AnyNumber,413.83,413.83042,413.83083,413.83125,413.83167,413.83208,413.8325,413.83292,413.83333,413.83375,413.83417,413.83458,413.835,413.83542,413.83583,413.83625,413.83667,413.83708,413.8375,413.83792,413.83833,413.83875,413.83917,413.83958;

Schedule:Day:Hourly, 96be91c7-29cf-4b29-8cbe-9aef71dd27ef, AnyNumber,413.84,413.84042,413.84083,413.84125,413.84167,413.84208,413.8425,413.84292,413.84333,413.84375,413.84417,413.84458,413.845,413.84542,413.84583,413.84625,413.84667,413.84708,413.8475,413.84792,413.84833,413.84875,413.84917,413.84958;

Schedule:Day:Hourly, aa35dbfc-abbe-4a40-b753-70c1b560677d, AnyNumber,413.85,413.85042,413.85083,413.85125,413.85167,413.85208,413.8525,413.85292,413.85333,413.85375,413.85417,413.85458,413.855,413.85542,413.85583,413.85625,413.85667,413.85708,413.8575,413.85792,413.85833,413.85875,413.85917,413.85958;

Schedule:Day:Hourly, 30da9883-1a3e-4b3f-b968-eb1a05b71228, AnyNumber,413.86,413.86042,413.86083,413.86125,413.86167,413.86208,413.8625,413.86292,413.86333,413.86375,413.86417,413.86458,413.865,413.86542,413.86583,413.86625,413.86667,413.86708,413.8675,413.86792,413.86833,413.86875,413.86917,413.86958;

Schedule:Day:Hourly, 0c0e397e-0f91-45c5-aabc-86aeda962daf, AnyNumber,413.87,413.87042,413.87083,413.87125,413.87167,413.87208,413.8725,413.87292,413.87333,413.87375,413.87417,413.87458,413.875,413.87542,413.87583,413.87625,413.87667,413.87708,413.8775,413.87792,413.87833,413.87875,413.87917,413.87958;

Schedule:Day:Hourly, ab151035-3a04-43aa-8559-1852aa3491ee, AnyNumber,413.88,413.88042,413.88083,413.88125,413.88167,413.88208,413.8825,413.88292,413.88333,413.88375,413.88417,413.88458,413.885,413.88542,413.88583,413.88625,413.88667,413.88708,413.8875,413.88792,413.88833,413.88875,413.88917,413.88958;

Schedule:Day:Hourly, a520c4f4-084f-478d-a391-7e1d651f9701, AnyNumber,413.89,413.89083,413.89167,413.8925,413.89333,413.89417,413.895,413.89583,413.89667,413.8975,413.89833,413.89917,413.9,413.90083,413.90167,413.9025,413.90333,413.90417,413.905,413.90583,413.90667,413.9075,413.90833,413.90917;

Schedule:Day:Hourly, 96461051-127b-4625-8da1-1dff3a59beaa, AnyNumber,413.91,413.91042,413.91083,413.91125,413.91167,413.91208,413.9125,413.91292,413.91333,413.91375,413.91417,413.91458,413.915,413.91542,413.91583,413.91625,413.91667,413.91708,413.9175,413.91792,413.91833,413.91875,413.91917,413.91958;

Schedule:Day:Hourly, 8aba5376-33bf-4b00-b305-2ea7ed072602, AnyNumber,413.92,413.92042,413.92083,413.92125,413.92167,413.92208,413.9225,413.92292,413.92333,413.92375,413.92417,413.92458,413.925,413.92542,413.92583,413.92625,413.92667,413.92708,413.9275,413.92792,413.92833,413.92875,413.92917,413.92958;

Schedule:Day:Hourly, 1eb98c09-d7fb-4e7b-9605-9e6215ea86b4, AnyNumber,413.93,413.93083,413.93167,413.9325,413.93333,413.93417,413.935,413.93583,413.93667,413.9375,413.93833,413.93917,413.94,413.94083,413.94167,413.9425,413.94333,413.94417,413.945,413.94583,413.94667,413.9475,413.94833,413.94917;

Schedule:Day:Hourly, 0d7f7dc3-7bc1-40bb-aab2-36eca7f2b691, AnyNumber,413.95,413.95042,413.95083,413.95125,413.95167,413.95208,413.9525,413.95292,413.95333,413.95375,413.95417,413.95458,413.955,413.95542,413.95583,413.95625,413.95667,413.95708,413.9575,413.95792,413.95833,413.95875,413.95917,413.95958;

Schedule:Day:Hourly, 516e14bd-7f60-42d1-8a10-592aad73d1d5, AnyNumber,413.96,413.96083,413.96167,413.9625,413.96333,413.96417,413.965,413.96583,413.96667,413.9675,413.96833,413.96917,413.97,413.97083,413.97167,413.9725,413.97333,413.97417,413.975,413.97583,413.97667,413.9775,413.97833,413.97917;

Schedule:Day:Hourly, 47a5fd02-9b1d-415c-990a-4f316f435f3f, AnyNumber,413.98,413.98042,413.98083,413.98125,413.98167,413.98208,413.9825,413.98292,413.98333,413.98375,413.98417,413.98458,413.985,413.98542,413.98583,413.98625,413.98667,413.98708,413.9875,413.98792,413.98833,413.98875,413.98917,413.98958;

Schedule:Day:Hourly, 2512d2d9-56f4-4696-b27a-98b45557fd22, AnyNumber,413.99,413.99083,413.99167,413.9925,413.99333,413.99417,413.995,413.99583,413.99667,413.9975,413.99833,413.99917,414,414.00083,414.00167,414.0025,414.00333,414.00417,414.005,414.00583,414.00667,414.0075,414.00833,414.00917;

Schedule:Day:Hourly, 5c564b72-0246-42d2-b091-5abf47f92b17, AnyNumber,414.01,414.01083,414.01167,414.0125,414.01333,414.01417,414.015,414.01583,414.01667,414.0175,414.01833,414.01917,414.02,414.02083,414.02167,414.0225,414.02333,414.02417,414.025,414.02583,414.02667,414.0275,414.02833,414.02917;

Schedule:Day:Hourly, 68d7f910-1b97-4915-89b1-a1083250c5c3, AnyNumber,414.03,414.03042,414.03083,414.03125,414.03167,414.03208,414.0325,414.03292,414.03333,414.03375,414.03417,414.03458,414.035,414.03542,414.03583,414.03625,414.03667,414.03708,414.0375,414.03792,414.03833,414.03875,414.03917,414.03958;

Schedule:Day:Hourly, efe045b8-ed66-438e-b707-c02703069c34, AnyNumber,414.04,414.04083,414.04167,414.0425,414.04333,414.04417,414.045,414.04583,414.04667,414.0475,414.04833,414.04917,414.05,414.05083,414.05167,414.0525,414.05333,414.05417,414.055,414.05583,414.05667,414.0575,414.05833,414.05917;

Schedule:Day:Hourly, 1ad7a10e-8d36-4ef6-ad3e-086bb5ed59a1, AnyNumber,414.06,414.06083,414.06167,414.0625,414.06333,414.06417,414.065,414.06583,414.06667,414.0675,414.06833,414.06917,414.07,414.07083,414.07167,414.0725,414.07333,414.07417,414.075,414.07583,414.07667,414.0775,414.07833,414.07917;

Schedule:Day:Hourly, 5c9dc787-0919-41eb-b5c1-a43dab6559a7, AnyNumber,414.08,414.08042,414.08083,414.08125,414.08167,414.08208,414.0825,414.08292,414.08333,414.08375,414.08417,414.08458,414.085,414.08542,414.08583,414.08625,414.08667,414.08708,414.0875,414.08792,414.08833,414.08875,414.08917,414.08958;

Schedule:Day:Hourly, 527e95f2-cba4-4689-b1c1-8d421924894d, AnyNumber,414.09,414.09083,414.09167,414.0925,414.09333,414.09417,414.095,414.09583,414.09667,414.0975,414.09833,414.09917,414.1,414.10083,414.10167,414.1025,414.10333,414.10417,414.105,414.10583,414.10667,414.1075,414.10833,414.10917;

Schedule:Day:Hourly, ca370dbc-f888-4e9a-856c-a39386bb94b9, AnyNumber,414.11,414.11083,414.11167,414.1125,414.11333,414.11417,414.115,414.11583,414.11667,414.1175,414.11833,414.11917,414.12,414.12083,414.12167,414.1225,414.12333,414.12417,414.125,414.12583,414.12667,414.1275,414.12833,414.12917;

Schedule:Day:Hourly, bc080fa9-a52e-451d-93a4-456b5bf12671, AnyNumber,414.13,414.13083,414.13167,414.1325,414.13333,414.13417,414.135,414.13583,414.13667,414.1375,414.13833,414.13917,414.14,414.14083,414.14167,414.1425,414.14333,414.14417,414.145,414.14583,414.14667,414.1475,414.14833,414.14917;

Schedule:Day:Hourly, 1681bd8e-0515-4057-9ea1-420ca3bbca1b, AnyNumber,414.15,414.15042,414.15083,414.15125,414.15167,414.15208,414.1525,414.15292,414.15333,414.15375,414.15417,414.15458,414.155,414.15542,414.15583,414.15625,414.15667,414.15708,414.1575,414.15792,414.15833,414.15875,414.15917,414.15958;

Schedule:Day:Hourly, def090e7-0b81-4d98-9791-9258bd9565d3, AnyNumber,414.16,414.16083,414.16167,414.1625,414.16333,414.16417,414.165,414.16583,414.16667,414.1675,414.16833,414.16917,414.17,414.17083,414.17167,414.1725,414.17333,414.17417,414.175,414.17583,414.17667,414.1775,414.17833,414.17917;

Schedule:Day:Hourly, 3551554e-2545-4269-89fb-addace2f7198, AnyNumber,414.18,414.18083,414.18167,414.1825,414.18333,414.18417,414.185,414.18583,414.18667,414.1875,414.18833,414.18917,414.19,414.19083,414.19167,414.1925,414.19333,414.19417,414.195,414.19583,414.19667,414.1975,414.19833,414.19917;

Schedule:Day:Hourly, 6f72b99e-acd5-4d1d-b3e2-4340a1c84f4d, AnyNumber,414.2,414.20083,414.20167,414.2025,414.20333,414.20417,414.205,414.20583,414.20667,414.2075,414.20833,414.20917,414.21,414.21083,414.21167,414.2125,414.21333,414.21417,414.215,414.21583,414.21667,414.2175,414.21833,414.21917;

Schedule:Day:Hourly, 97997443-9bf1-4f1c-94b5-afa246e5600b, AnyNumber,414.22,414.22042,414.22083,414.22125,414.22167,414.22208,414.2225,414.22292,414.22333,414.22375,414.22417,414.22458,414.225,414.22542,414.22583,414.22625,414.22667,414.22708,414.2275,414.22792,414.22833,414.22875,414.22917,414.22958;

Schedule:Day:Hourly, baaec954-7fd8-41c0-9ee0-3e8665719d11, AnyNumber,414.23,414.23083,414.23167,414.2325,414.23333,414.23417,414.235,414.23583,414.23667,414.2375,414.23833,414.23917,414.24,414.24083,414.24167,414.2425,414.24333,414.24417,414.245,414.24583,414.24667,414.2475,414.24833,414.24917;

Schedule:Day:Hourly, d6830e18-1e93-4f3c-92ad-5f27ac7362b1, AnyNumber,414.25,414.25083,414.25167,414.2525,414.25333,414.25417,414.255,414.25583,414.25667,414.2575,414.25833,414.25917,414.26,414.26083,414.26167,414.2625,414.26333,414.26417,414.265,414.26583,414.26667,414.2675,414.26833,414.26917;

Schedule:Day:Hourly, 35389261-06b6-43a7-8ce6-6e44f4d7aa59, AnyNumber,414.27,414.27042,414.27083,414.27125,414.27167,414.27208,414.2725,414.27292,414.27333,414.27375,414.27417,414.27458,414.275,414.27542,414.27583,414.27625,414.27667,414.27708,414.2775,414.27792,414.27833,414.27875,414.27917,414.27958;

Schedule:Day:Hourly, a3931ba7-fc0a-47c3-b4dd-7ce8515b89f8, AnyNumber,414.28,414.28083,414.28167,414.2825,414.28333,414.28417,414.285,414.28583,414.28667,414.2875,414.28833,414.28917,414.29,414.29083,414.29167,414.2925,414.29333,414.29417,414.295,414.29583,414.29667,414.2975,414.29833,414.29917;

Schedule:Day:Hourly, a27cd3bf-f737-4e7c-a46a-201ce65565c1, AnyNumber,414.3,414.30083,414.30167,414.3025,414.30333,414.30417,414.305,414.30583,414.30667,414.3075,414.30833,414.30917,414.31,414.31083,414.31167,414.3125,414.31333,414.31417,414.315,414.31583,414.31667,414.3175,414.31833,414.31917;

Schedule:Day:Hourly, 7c99650d-ec04-4270-a0c0-14a6e9a5f296, AnyNumber,414.32,414.32042,414.32083,414.32125,414.32167,414.32208,414.3225,414.32292,414.32333,414.32375,414.32417,414.32458,414.325,414.32542,414.32583,414.32625,414.32667,414.32708,414.3275,414.32792,414.32833,414.32875,414.32917,414.32958;

Schedule:Day:Hourly, e2e5520d-9761-45d7-a62b-a3f0fc2b4470, AnyNumber,414.33,414.33083,414.33167,414.3325,414.33333,414.33417,414.335,414.33583,414.33667,414.3375,414.33833,414.33917,414.34,414.34083,414.34167,414.3425,414.34333,414.34417,414.345,414.34583,414.34667,414.3475,414.34833,414.34917;

Schedule:Day:Hourly, 57c6b555-916e-4d8c-a4c3-531f8edb76ae, AnyNumber,414.35,414.35042,414.35083,414.35125,414.35167,414.35208,414.3525,414.35292,414.35333,414.35375,414.35417,414.35458,414.355,414.35542,414.35583,414.35625,414.35667,414.35708,414.3575,414.35792,414.35833,414.35875,414.35917,414.35958;

Schedule:Day:Hourly, be0ea864-ff46-4be2-bce1-6a5d0eaec933, AnyNumber,414.36,414.36083,414.36167,414.3625,414.36333,414.36417,414.365,414.36583,414.36667,414.3675,414.36833,414.36917,414.37,414.37083,414.37167,414.3725,414.37333,414.37417,414.375,414.37583,414.37667,414.3775,414.37833,414.37917;

Schedule:Day:Hourly, 0420776e-2d09-44cf-98c3-583d9403fee3, AnyNumber,414.38,414.38042,414.38083,414.38125,414.38167,414.38208,414.3825,414.38292,414.38333,414.38375,414.38417,414.38458,414.385,414.38542,414.38583,414.38625,414.38667,414.38708,414.3875,414.38792,414.38833,414.38875,414.38917,414.38958;

Schedule:Day:Hourly, 50c69357-c0a7-4cba-9ab4-79a685b5e640, AnyNumber,414.39,414.39042,414.39083,414.39125,414.39167,414.39208,414.3925,414.39292,414.39333,414.39375,414.39417,414.39458,414.395,414.39542,414.39583,414.39625,414.39667,414.39708,414.3975,414.39792,414.39833,414.39875,414.39917,414.39958;

Schedule:Day:Hourly, 9487853b-6e22-4aab-adad-b7f84c8b466c, AnyNumber,414.4,414.40083,414.40167,414.4025,414.40333,414.40417,414.405,414.40583,414.40667,414.4075,414.40833,414.40917,414.41,414.41083,414.41167,414.4125,414.41333,414.41417,414.415,414.41583,414.41667,414.4175,414.41833,414.41917;

Schedule:Day:Hourly, 56f0a9f1-be58-4628-86d3-c1c418595744, AnyNumber,414.42,414.42042,414.42083,414.42125,414.42167,414.42208,414.4225,414.42292,414.42333,414.42375,414.42417,414.42458,414.425,414.42542,414.42583,414.42625,414.42667,414.42708,414.4275,414.42792,414.42833,414.42875,414.42917,414.42958;

Schedule:Day:Hourly, 570b5aaf-cd57-4d28-b799-57645d608ce2, AnyNumber,414.43,414.43042,414.43083,414.43125,414.43167,414.43208,414.4325,414.43292,414.43333,414.43375,414.43417,414.43458,414.435,414.43542,414.43583,414.43625,414.43667,414.43708,414.4375,414.43792,414.43833,414.43875,414.43917,414.43958;

Schedule:Day:Hourly, 33235a87-bf5b-486b-9038-4b30202aafe4, AnyNumber,414.44,414.44042,414.44083,414.44125,414.44167,414.44208,414.4425,414.44292,414.44333,414.44375,414.44417,414.44458,414.445,414.44542,414.44583,414.44625,414.44667,414.44708,414.4475,414.44792,414.44833,414.44875,414.44917,414.44958;

Schedule:Day:Hourly, bcef65c2-2226-4f1c-ba4f-1009a64f3a59, AnyNumber,414.45,414.45042,414.45083,414.45125,414.45167,414.45208,414.4525,414.45292,414.45333,414.45375,414.45417,414.45458,414.455,414.45542,414.45583,414.45625,414.45667,414.45708,414.4575,414.45792,414.45833,414.45875,414.45917,414.45958;

Schedule:Day:Hourly, 6ab16a15-e68b-49e7-abf4-235536c08d8a, AnyNumber,414.46,414.46042,414.46083,414.46125,414.46167,414.46208,414.4625,414.46292,414.46333,414.46375,414.46417,414.46458,414.465,414.46542,414.46583,414.46625,414.46667,414.46708,414.4675,414.46792,414.46833,414.46875,414.46917,414.46958;

Schedule:Day:Hourly, ec290726-49bb-43ab-97b4-ee5438ad7303, AnyNumber,414.47,414.47042,414.47083,414.47125,414.47167,414.47208,414.4725,414.47292,414.47333,414.47375,414.47417,414.47458,414.475,414.47542,414.47583,414.47625,414.47667,414.47708,414.4775,414.47792,414.47833,414.47875,414.47917,414.47958;

Schedule:Day:Hourly, e956c6b6-058c-4ae2-9a64-3988d7a1112c, AnyNumber,414.48,414.48042,414.48083,414.48125,414.48167,414.48208,414.4825,414.48292,414.48333,414.48375,414.48417,414.48458,414.485,414.48542,414.48583,414.48625,414.48667,414.48708,414.4875,414.48792,414.48833,414.48875,414.48917,414.48958;

Schedule:Day:Hourly, d02f64c6-bdcd-4369-9a86-ea7bb9ad1e3a, AnyNumber,414.49,414.49042,414.49083,414.49125,414.49167,414.49208,414.4925,414.49292,414.49333,414.49375,414.49417,414.49458,414.495,414.49542,414.49583,414.49625,414.49667,414.49708,414.4975,414.49792,414.49833,414.49875,414.49917,414.49958;

Schedule:Day:Hourly, 052879d7-28fd-4ada-a221-c114be4e9498, AnyNumber,414.5,414.50042,414.50083,414.50125,414.50167,414.50208,414.5025,414.50292,414.50333,414.50375,414.50417,414.50458,414.505,414.50542,414.50583,414.50625,414.50667,414.50708,414.5075,414.50792,414.50833,414.50875,414.50917,414.50958;

Schedule:Day:Hourly, 8b51dc49-63af-407c-964b-3f79d16e39f7, AnyNumber,414.51,414.51,414.51,414.51,414.51,414.51,414.51,414.51,414.51,414.51,414.51,414.51,414.51,414.51,414.51,414.51,414.51,414.51,414.51,414.51,414.51,414.51,414.51,414.51;

Schedule:Day:Hourly, 968fd929-3ebe-44bd-bcac-ef2ad74f5a3b, AnyNumber,414.51,414.51042,414.51083,414.51125,414.51167,414.51208,414.5125,414.51292,414.51333,414.51375,414.51417,414.51458,414.515,414.51542,414.51583,414.51625,414.51667,414.51708,414.5175,414.51792,414.51833,414.51875,414.51917,414.51958;

Schedule:Day:Hourly, 370dda73-e219-4edb-bab7-05f108de0f32, AnyNumber,414.52,414.52,414.52,414.52,414.52,414.52,414.52,414.52,414.52,414.52,414.52,414.52,414.52,414.52,414.52,414.52,414.52,414.52,414.52,414.52,414.52,414.52,414.52,414.52;

Schedule:Day:Hourly, bee0c9da-84e1-4433-939d-3d78747a36cc, AnyNumber,414.52,414.52042,414.52083,414.52125,414.52167,414.52208,414.5225,414.52292,414.52333,414.52375,414.52417,414.52458,414.525,414.52542,414.52583,414.52625,414.52667,414.52708,414.5275,414.52792,414.52833,414.52875,414.52917,414.52958;

Schedule:Day:Hourly, 0beb00ba-91f0-4771-9e20-8b6ebaa47fb7, AnyNumber,414.53,414.53,414.53,414.53,414.53,414.53,414.53,414.53,414.53,414.53,414.53,414.53,414.53,414.53,414.53,414.53,414.53,414.53,414.53,414.53,414.53,414.53,414.53,414.53;

Schedule:Day:Hourly, 5d2388bd-f78f-414e-992f-77227fb240bd, AnyNumber,414.53,414.53042,414.53083,414.53125,414.53167,414.53208,414.5325,414.53292,414.53333,414.53375,414.53417,414.53458,414.535,414.53542,414.53583,414.53625,414.53667,414.53708,414.5375,414.53792,414.53833,414.53875,414.53917,414.53958;

Schedule:Day:Hourly, d316f06b-4c56-46f7-a76d-89dbe6e18b08, AnyNumber,414.54,414.54,414.54,414.54,414.54,414.54,414.54,414.54,414.54,414.54,414.54,414.54,414.54,414.54,414.54,414.54,414.54,414.54,414.54,414.54,414.54,414.54,414.54,414.54;

Schedule:Day:Hourly, f9095ee1-3bf0-4a5e-b45d-a2e0ac1836a7, AnyNumber,414.54,414.53958,414.53917,414.53875,414.53833,414.53792,414.5375,414.53708,414.53667,414.53625,414.53583,414.53542,414.535,414.53458,414.53417,414.53375,414.53333,414.53292,414.5325,414.53208,414.53167,414.53125,414.53083,414.53042;

Schedule:Day:Hourly, 09c3e794-6685-40d4-8e15-2dda9e8cea30, AnyNumber,414.53,414.52958,414.52917,414.52875,414.52833,414.52792,414.5275,414.52708,414.52667,414.52625,414.52583,414.52542,414.525,414.52458,414.52417,414.52375,414.52333,414.52292,414.5225,414.52208,414.52167,414.52125,414.52083,414.52042;

Schedule:Day:Hourly, 459c8cc7-7794-4f1c-aceb-53284d46481f, AnyNumber,414.52,414.51958,414.51917,414.51875,414.51833,414.51792,414.5175,414.51708,414.51667,414.51625,414.51583,414.51542,414.515,414.51458,414.51417,414.51375,414.51333,414.51292,414.5125,414.51208,414.51167,414.51125,414.51083,414.51042;

Schedule:Day:Hourly, 1a31a0f7-0d48-42be-b4a5-af5959c45aae, AnyNumber,414.51,414.50958,414.50917,414.50875,414.50833,414.50792,414.5075,414.50708,414.50667,414.50625,414.50583,414.50542,414.505,414.50458,414.50417,414.50375,414.50333,414.50292,414.5025,414.50208,414.50167,414.50125,414.50083,414.50042;

Schedule:Day:Hourly, 191b6aa3-edf9-42a3-8d7d-dff0bbcca632, AnyNumber,414.5,414.49958,414.49917,414.49875,414.49833,414.49792,414.4975,414.49708,414.49667,414.49625,414.49583,414.49542,414.495,414.49458,414.49417,414.49375,414.49333,414.49292,414.4925,414.49208,414.49167,414.49125,414.49083,414.49042;

Schedule:Day:Hourly, 78ecff63-6838-43a5-b247-cc8b88a2da0d, AnyNumber,414.49,414.48958,414.48917,414.48875,414.48833,414.48792,414.4875,414.48708,414.48667,414.48625,414.48583,414.48542,414.485,414.48458,414.48417,414.48375,414.48333,414.48292,414.4825,414.48208,414.48167,414.48125,414.48083,414.48042;

Schedule:Day:Hourly, c887d628-fbaf-44df-b929-1e21e12c6f65, AnyNumber,414.48,414.47958,414.47917,414.47875,414.47833,414.47792,414.4775,414.47708,414.47667,414.47625,414.47583,414.47542,414.475,414.47458,414.47417,414.47375,414.47333,414.47292,414.4725,414.47208,414.47167,414.47125,414.47083,414.47042;

Schedule:Day:Hourly, 3ff39d8e-1011-4b36-bee6-376bd578b081, AnyNumber,414.47,414.46917,414.46833,414.4675,414.46667,414.46583,414.465,414.46417,414.46333,414.4625,414.46167,414.46083,414.46,414.45917,414.45833,414.4575,414.45667,414.45583,414.455,414.45417,414.45333,414.4525,414.45167,414.45083;

Schedule:Day:Hourly, 73247325-f0f5-4632-bd7c-f79b518b8f55, AnyNumber,414.45,414.44958,414.44917,414.44875,414.44833,414.44792,414.4475,414.44708,414.44667,414.44625,414.44583,414.44542,414.445,414.44458,414.44417,414.44375,414.44333,414.44292,414.4425,414.44208,414.44167,414.44125,414.44083,414.44042;

Schedule:Day:Hourly, 85a47f38-1b79-4e81-8ac2-f7c3e488cff1, AnyNumber,414.44,414.43917,414.43833,414.4375,414.43667,414.43583,414.435,414.43417,414.43333,414.4325,414.43167,414.43083,414.43,414.42917,414.42833,414.4275,414.42667,414.42583,414.425,414.42417,414.42333,414.4225,414.42167,414.42083;

Schedule:Day:Hourly, 0714c782-61f4-4a32-bd8f-88f4b7c270c6, AnyNumber,414.42,414.41958,414.41917,414.41875,414.41833,414.41792,414.4175,414.41708,414.41667,414.41625,414.41583,414.41542,414.415,414.41458,414.41417,414.41375,414.41333,414.41292,414.4125,414.41208,414.41167,414.41125,414.41083,414.41042;

Schedule:Day:Hourly, b9635305-faa8-46d3-8209-583234b7b7f6, AnyNumber,414.41,414.40917,414.40833,414.4075,414.40667,414.40583,414.405,414.40417,414.40333,414.4025,414.40167,414.40083,414.4,414.39917,414.39833,414.3975,414.39667,414.39583,414.395,414.39417,414.39333,414.3925,414.39167,414.39083;

Schedule:Day:Hourly, e88b3c77-5ee8-4bd6-9098-6645500312d6, AnyNumber,414.39,414.38917,414.38833,414.3875,414.38667,414.38583,414.385,414.38417,414.38333,414.3825,414.38167,414.38083,414.38,414.37917,414.37833,414.3775,414.37667,414.37583,414.375,414.37417,414.37333,414.3725,414.37167,414.37083;

Schedule:Day:Hourly, 42027279-8f08-4b62-a95c-42e055bf7ad1, AnyNumber,414.37,414.36917,414.36833,414.3675,414.36667,414.36583,414.365,414.36417,414.36333,414.3625,414.36167,414.36083,414.36,414.35917,414.35833,414.3575,414.35667,414.35583,414.355,414.35417,414.35333,414.3525,414.35167,414.35083;

Schedule:Day:Hourly, 211e259d-26f4-47fa-bea5-24a9ae6114aa, AnyNumber,414.35,414.34917,414.34833,414.3475,414.34667,414.34583,414.345,414.34417,414.34333,414.3425,414.34167,414.34083,414.34,414.33917,414.33833,414.3375,414.33667,414.33583,414.335,414.33417,414.33333,414.3325,414.33167,414.33083;

Schedule:Day:Hourly, 8da5a336-6e97-43c9-8831-a1ada28b9142, AnyNumber,414.33,414.32875,414.3275,414.32625,414.325,414.32375,414.3225,414.32125,414.32,414.31875,414.3175,414.31625,414.315,414.31375,414.3125,414.31125,414.31,414.30875,414.3075,414.30625,414.305,414.30375,414.3025,414.30125;

Schedule:Day:Hourly, 3bd8b7d9-82db-4a3b-96e2-04b835bdb283, AnyNumber,414.3,414.29917,414.29833,414.2975,414.29667,414.29583,414.295,414.29417,414.29333,414.2925,414.29167,414.29083,414.29,414.28917,414.28833,414.2875,414.28667,414.28583,414.285,414.28417,414.28333,414.2825,414.28167,414.28083;

Schedule:Day:Hourly, 4f5c6eed-0cab-4e0c-8664-c9ec7fc9a7e1, AnyNumber,414.28,414.27875,414.2775,414.27625,414.275,414.27375,414.2725,414.27125,414.27,414.26875,414.2675,414.26625,414.265,414.26375,414.2625,414.26125,414.26,414.25875,414.2575,414.25625,414.255,414.25375,414.2525,414.25125;

Schedule:Day:Hourly, 8f3ea8f9-d93d-4665-9dcf-65ebdb2c0e08, AnyNumber,414.25,414.24875,414.2475,414.24625,414.245,414.24375,414.2425,414.24125,414.24,414.23875,414.2375,414.23625,414.235,414.23375,414.2325,414.23125,414.23,414.22875,414.2275,414.22625,414.225,414.22375,414.2225,414.22125;

Schedule:Day:Hourly, 4d2a22f5-abf2-42d2-b7d7-0806c72834f0, AnyNumber,414.22,414.21875,414.2175,414.21625,414.215,414.21375,414.2125,414.21125,414.21,414.20875,414.2075,414.20625,414.205,414.20375,414.2025,414.20125,414.2,414.19875,414.1975,414.19625,414.195,414.19375,414.1925,414.19125;

Schedule:Day:Hourly, 3643127f-1097-4666-9420-22935f176c05, AnyNumber,414.19,414.18875,414.1875,414.18625,414.185,414.18375,414.1825,414.18125,414.18,414.17875,414.1775,414.17625,414.175,414.17375,414.1725,414.17125,414.17,414.16875,414.1675,414.16625,414.165,414.16375,414.1625,414.16125;

Schedule:Day:Hourly, 0e7c9ef6-cd52-44b4-ac35-251c35f2a185, AnyNumber,414.16,414.15875,414.1575,414.15625,414.155,414.15375,414.1525,414.15125,414.15,414.14875,414.1475,414.14625,414.145,414.14375,414.1425,414.14125,414.14,414.13875,414.1375,414.13625,414.135,414.13375,414.1325,414.13125;

Schedule:Day:Hourly, 414e36e9-15e9-414b-908b-90c1a80258a6, AnyNumber,414.13,414.12833,414.12667,414.125,414.12333,414.12167,414.12,414.11833,414.11667,414.115,414.11333,414.11167,414.11,414.10833,414.10667,414.105,414.10333,414.10167,414.1,414.09833,414.09667,414.095,414.09333,414.09167;

Schedule:Day:Hourly, d92cf09c-a0e8-44ed-842e-ec814eccd803, AnyNumber,414.09,414.08875,414.0875,414.08625,414.085,414.08375,414.0825,414.08125,414.08,414.07875,414.0775,414.07625,414.075,414.07375,414.0725,414.07125,414.07,414.06875,414.0675,414.06625,414.065,414.06375,414.0625,414.06125;

Schedule:Day:Hourly, efcc6d4f-f6c4-4195-b1c2-79f6213eacfc, AnyNumber,414.06,414.05833,414.05667,414.055,414.05333,414.05167,414.05,414.04833,414.04667,414.045,414.04333,414.04167,414.04,414.03833,414.03667,414.035,414.03333,414.03167,414.03,414.02833,414.02667,414.025,414.02333,414.02167;

Schedule:Day:Hourly, 27174a66-7d94-4037-9972-b412fabb5dba, AnyNumber,414.02,414.01833,414.01667,414.015,414.01333,414.01167,414.01,414.00833,414.00667,414.005,414.00333,414.00167,414,413.99833,413.99667,413.995,413.99333,413.99167,413.99,413.98833,413.98667,413.985,413.98333,413.98167;

Schedule:Day:Hourly, eabe49ea-34a9-4858-85a4-6bd33615d45a, AnyNumber,413.98,413.97833,413.97667,413.975,413.97333,413.97167,413.97,413.96833,413.96667,413.965,413.96333,413.96167,413.96,413.95833,413.95667,413.955,413.95333,413.95167,413.95,413.94833,413.94667,413.945,413.94333,413.94167;

Schedule:Day:Hourly, 2e5f14b5-c3e1-4ca3-b482-6570389ce667, AnyNumber,413.94,413.93792,413.93583,413.93375,413.93167,413.92958,413.9275,413.92542,413.92333,413.92125,413.91917,413.91708,413.915,413.91292,413.91083,413.90875,413.90667,413.90458,413.9025,413.90042,413.89833,413.89625,413.89417,413.89208;

Schedule:Day:Hourly, 7c62925b-f7b7-4f10-b995-c56ee0f096b7, AnyNumber,413.89,413.88833,413.88667,413.885,413.88333,413.88167,413.88,413.87833,413.87667,413.875,413.87333,413.87167,413.87,413.86833,413.86667,413.865,413.86333,413.86167,413.86,413.85833,413.85667,413.855,413.85333,413.85167;

Schedule:Day:Hourly, 16a76cf1-b69a-44b2-bbbc-05ef6573ce19, AnyNumber,413.85,413.84792,413.84583,413.84375,413.84167,413.83958,413.8375,413.83542,413.83333,413.83125,413.82917,413.82708,413.825,413.82292,413.82083,413.81875,413.81667,413.81458,413.8125,413.81042,413.80833,413.80625,413.80417,413.80208;

Schedule:Day:Hourly, adfde6a7-07d3-4b15-87c4-f03199d51563, AnyNumber,413.8,413.79792,413.79583,413.79375,413.79167,413.78958,413.7875,413.78542,413.78333,413.78125,413.77917,413.77708,413.775,413.77292,413.77083,413.76875,413.76667,413.76458,413.7625,413.76042,413.75833,413.75625,413.75417,413.75208;

Schedule:Day:Hourly, ccaf9653-a8b1-4776-b838-916f96d08b30, AnyNumber,413.75,413.74792,413.74583,413.74375,413.74167,413.73958,413.7375,413.73542,413.73333,413.73125,413.72917,413.72708,413.725,413.72292,413.72083,413.71875,413.71667,413.71458,413.7125,413.71042,413.70833,413.70625,413.70417,413.70208;

Schedule:Day:Hourly, 90f93fbb-bcde-4cce-b0b7-65759f9883fb, AnyNumber,413.7,413.69792,413.69583,413.69375,413.69167,413.68958,413.6875,413.68542,413.68333,413.68125,413.67917,413.67708,413.675,413.67292,413.67083,413.66875,413.66667,413.66458,413.6625,413.66042,413.65833,413.65625,413.65417,413.65208;

Schedule:Day:Hourly, 4b1f0eb3-4978-45ef-ac1b-2bc1ccdee275, AnyNumber,413.65,413.6475,413.645,413.6425,413.64,413.6375,413.635,413.6325,413.63,413.6275,413.625,413.6225,413.62,413.6175,413.615,413.6125,413.61,413.6075,413.605,413.6025,413.6,413.5975,413.595,413.5925;

Schedule:Day:Hourly, bf4a2305-2717-4905-9a72-fb097eb76358, AnyNumber,413.59,413.58792,413.58583,413.58375,413.58167,413.57958,413.5775,413.57542,413.57333,413.57125,413.56917,413.56708,413.565,413.56292,413.56083,413.55875,413.55667,413.55458,413.5525,413.55042,413.54833,413.54625,413.54417,413.54208;

Schedule:Day:Hourly, dae7adea-5c85-46b2-8757-576aeec57067, AnyNumber,413.54,413.5375,413.535,413.5325,413.53,413.5275,413.525,413.5225,413.52,413.5175,413.515,413.5125,413.51,413.5075,413.505,413.5025,413.5,413.4975,413.495,413.4925,413.49,413.4875,413.485,413.4825;

Schedule:Day:Hourly, c5356536-4c4a-4b12-992a-687f14f2bf67, AnyNumber,413.48,413.4775,413.475,413.4725,413.47,413.4675,413.465,413.4625,413.46,413.4575,413.455,413.4525,413.45,413.4475,413.445,413.4425,413.44,413.4375,413.435,413.4325,413.43,413.4275,413.425,413.4225;

Schedule:Day:Hourly, 315b8d83-f2a7-44ff-80d1-2262616d955e, AnyNumber,413.42,413.4175,413.415,413.4125,413.41,413.4075,413.405,413.4025,413.4,413.3975,413.395,413.3925,413.39,413.3875,413.385,413.3825,413.38,413.3775,413.375,413.3725,413.37,413.3675,413.365,413.3625;

Schedule:Day:Hourly, a6d82a28-9e5f-497d-88de-4abd1c3d4af9, AnyNumber,413.36,413.35708,413.35417,413.35125,413.34833,413.34542,413.3425,413.33958,413.33667,413.33375,413.33083,413.32792,413.325,413.32208,413.31917,413.31625,413.31333,413.31042,413.3075,413.30458,413.30167,413.29875,413.29583,413.29292;

Schedule:Day:Hourly, 1f96e7ff-2a53-454e-916d-260da3af90fa, AnyNumber,413.29,413.2875,413.285,413.2825,413.28,413.2775,413.275,413.2725,413.27,413.2675,413.265,413.2625,413.26,413.2575,413.255,413.2525,413.25,413.2475,413.245,413.2425,413.24,413.2375,413.235,413.2325;

Schedule:Day:Hourly, e6603505-671c-4fc3-adcc-c2fc132d2d38, AnyNumber,413.23,413.22708,413.22417,413.22125,413.21833,413.21542,413.2125,413.20958,413.20667,413.20375,413.20083,413.19792,413.195,413.19208,413.18917,413.18625,413.18333,413.18042,413.1775,413.17458,413.17167,413.16875,413.16583,413.16292;

Schedule:Day:Hourly, 64dbda41-4ad8-4444-ab66-a810e23fe5aa, AnyNumber,413.16,413.15708,413.15417,413.15125,413.14833,413.14542,413.1425,413.13958,413.13667,413.13375,413.13083,413.12792,413.125,413.12208,413.11917,413.11625,413.11333,413.11042,413.1075,413.10458,413.10167,413.09875,413.09583,413.09292;

Schedule:Day:Hourly, 82ce96a7-2dbb-4e63-b8d8-d9982775b386, AnyNumber,413.09,413.08708,413.08417,413.08125,413.07833,413.07542,413.0725,413.06958,413.06667,413.06375,413.06083,413.05792,413.055,413.05208,413.04917,413.04625,413.04333,413.04042,413.0375,413.03458,413.03167,413.02875,413.02583,413.02292;

Schedule:Day:Hourly, 2aa921b5-0da4-4948-ad79-a734544fdf78, AnyNumber,413.02,413.01708,413.01417,413.01125,413.00833,413.00542,413.0025,412.99958,412.99667,412.99375,412.99083,412.98792,412.985,412.98208,412.97917,412.97625,412.97333,412.97042,412.9675,412.96458,412.96167,412.95875,412.95583,412.95292;

Schedule:Day:Hourly, 975b5be2-2d53-445a-9a46-68faee9ab7cb, AnyNumber,412.95,412.94708,412.94417,412.94125,412.93833,412.93542,412.9325,412.92958,412.92667,412.92375,412.92083,412.91792,412.915,412.91208,412.90917,412.90625,412.90333,412.90042,412.8975,412.89458,412.89167,412.88875,412.88583,412.88292;

Schedule:Day:Hourly, 480a5d95-e602-4173-ba1c-d5a0c309cffa, AnyNumber,412.88,412.87667,412.87333,412.87,412.86667,412.86333,412.86,412.85667,412.85333,412.85,412.84667,412.84333,412.84,412.83667,412.83333,412.83,412.82667,412.82333,412.82,412.81667,412.81333,412.81,412.80667,412.80333;

Schedule:Day:Hourly, cca3f448-5501-40f4-a487-ef2a3e29b0ab, AnyNumber,412.8,412.79667,412.79333,412.79,412.78667,412.78333,412.78,412.77667,412.77333,412.77,412.76667,412.76333,412.76,412.75667,412.75333,412.75,412.74667,412.74333,412.74,412.73667,412.73333,412.73,412.72667,412.72333;

Schedule:Day:Hourly, 820bd996-0b60-4ca3-b5ba-d0eecff2f4b9, AnyNumber,412.72,412.71708,412.71417,412.71125,412.70833,412.70542,412.7025,412.69958,412.69667,412.69375,412.69083,412.68792,412.685,412.68208,412.67917,412.67625,412.67333,412.67042,412.6675,412.66458,412.66167,412.65875,412.65583,412.65292;

Schedule:Day:Hourly, 10cac3c2-19b1-4014-899a-c1e1d1674bb6, AnyNumber,412.65,412.64667,412.64333,412.64,412.63667,412.63333,412.63,412.62667,412.62333,412.62,412.61667,412.61333,412.61,412.60667,412.60333,412.6,412.59667,412.59333,412.59,412.58667,412.58333,412.58,412.57667,412.57333;

Schedule:Day:Hourly, b6a4e4c9-1f8b-466d-9246-d3b941e84232, AnyNumber,412.57,412.56667,412.56333,412.56,412.55667,412.55333,412.55,412.54667,412.54333,412.54,412.53667,412.53333,412.53,412.52667,412.52333,412.52,412.51667,412.51333,412.51,412.50667,412.50333,412.5,412.49667,412.49333;

Schedule:Day:Hourly, b8e4f2c5-9ee1-4f9d-a334-7cd2405d71c1, AnyNumber,412.49,412.48667,412.48333,412.48,412.47667,412.47333,412.47,412.46667,412.46333,412.46,412.45667,412.45333,412.45,412.44667,412.44333,412.44,412.43667,412.43333,412.43,412.42667,412.42333,412.42,412.41667,412.41333;

Schedule:Day:Hourly, 9745081f-eefb-450c-ac34-1fd90ce6b616, AnyNumber,412.41,412.40625,412.4025,412.39875,412.395,412.39125,412.3875,412.38375,412.38,412.37625,412.3725,412.36875,412.365,412.36125,412.3575,412.35375,412.35,412.34625,412.3425,412.33875,412.335,412.33125,412.3275,412.32375;

Schedule:Day:Hourly, 1af2002e-d290-46f7-86e3-af4b7aadb3d1, AnyNumber,412.32,412.31667,412.31333,412.31,412.30667,412.30333,412.3,412.29667,412.29333,412.29,412.28667,412.28333,412.28,412.27667,412.27333,412.27,412.26667,412.26333,412.26,412.25667,412.25333,412.25,412.24667,412.24333;

Schedule:Day:Hourly, ed3639c9-477c-4cb3-a41c-8932a3c5a1b9, AnyNumber,412.24,412.23625,412.2325,412.22875,412.225,412.22125,412.2175,412.21375,412.21,412.20625,412.2025,412.19875,412.195,412.19125,412.1875,412.18375,412.18,412.17625,412.1725,412.16875,412.165,412.16125,412.1575,412.15375;

Schedule:Day:Hourly, 9dcde541-d7ce-4b28-b9e2-bc2298b22019, AnyNumber,412.15,412.14667,412.14333,412.14,412.13667,412.13333,412.13,412.12667,412.12333,412.12,412.11667,412.11333,412.11,412.10667,412.10333,412.1,412.09667,412.09333,412.09,412.08667,412.08333,412.08,412.07667,412.07333;

Schedule:Day:Hourly, d4c6e868-3412-479f-83e3-14267c448570, AnyNumber,412.07,412.06625,412.0625,412.05875,412.055,412.05125,412.0475,412.04375,412.04,412.03625,412.0325,412.02875,412.025,412.02125,412.0175,412.01375,412.01,412.00625,412.0025,411.99875,411.995,411.99125,411.9875,411.98375;

Schedule:Day:Hourly, 7804bc1e-31b2-48b9-89da-f29bc904ca0d, AnyNumber,411.98,411.97667,411.97333,411.97,411.96667,411.96333,411.96,411.95667,411.95333,411.95,411.94667,411.94333,411.94,411.93667,411.93333,411.93,411.92667,411.92333,411.92,411.91667,411.91333,411.91,411.90667,411.90333;

Schedule:Day:Hourly, f3815885-2b57-41fd-bf81-67fe9b5eef8e, AnyNumber,411.9,411.89625,411.8925,411.88875,411.885,411.88125,411.8775,411.87375,411.87,411.86625,411.8625,411.85875,411.855,411.85125,411.8475,411.84375,411.84,411.83625,411.8325,411.82875,411.825,411.82125,411.8175,411.81375;

Schedule:Day:Hourly, c2d30c8a-8d5a-4a61-89f9-65e306e7b7da, AnyNumber,411.81,411.80625,411.8025,411.79875,411.795,411.79125,411.7875,411.78375,411.78,411.77625,411.7725,411.76875,411.765,411.76125,411.7575,411.75375,411.75,411.74625,411.7425,411.73875,411.735,411.73125,411.7275,411.72375;

Schedule:Day:Hourly, 3c91c704-d0e8-4744-b965-d8064f22eb87, AnyNumber,411.72,411.71625,411.7125,411.70875,411.705,411.70125,411.6975,411.69375,411.69,411.68625,411.6825,411.67875,411.675,411.67125,411.6675,411.66375,411.66,411.65625,411.6525,411.64875,411.645,411.64125,411.6375,411.63375;

Schedule:Day:Hourly, 5643e49a-8b09-4c6b-94bb-70765b6ce189, AnyNumber,411.63,411.62667,411.62333,411.62,411.61667,411.61333,411.61,411.60667,411.60333,411.6,411.59667,411.59333,411.59,411.58667,411.58333,411.58,411.57667,411.57333,411.57,411.56667,411.56333,411.56,411.55667,411.55333;

Schedule:Day:Hourly, c6dd56aa-17bc-48c2-af09-21743eaf3c56, AnyNumber,411.55,411.54625,411.5425,411.53875,411.535,411.53125,411.5275,411.52375,411.52,411.51625,411.5125,411.50875,411.505,411.50125,411.4975,411.49375,411.49,411.48625,411.4825,411.47875,411.475,411.47125,411.4675,411.46375;

Schedule:Day:Hourly, f175a81b-297c-4034-9966-d8cb5762a744, AnyNumber,411.46,411.45625,411.4525,411.44875,411.445,411.44125,411.4375,411.43375,411.43,411.42625,411.4225,411.41875,411.415,411.41125,411.4075,411.40375,411.4,411.39625,411.3925,411.38875,411.385,411.38125,411.3775,411.37375;

Schedule:Day:Hourly, 451d6cea-ab9f-4dbb-8582-f3d605846f44, AnyNumber,411.37,411.36625,411.3625,411.35875,411.355,411.35125,411.3475,411.34375,411.34,411.33625,411.3325,411.32875,411.325,411.32125,411.3175,411.31375,411.31,411.30625,411.3025,411.29875,411.295,411.29125,411.2875,411.28375;

Schedule:Day:Hourly, c7c4cc74-4fb9-438d-a886-3b42dcad8a0a, AnyNumber,411.28,411.27625,411.2725,411.26875,411.265,411.26125,411.2575,411.25375,411.25,411.24625,411.2425,411.23875,411.235,411.23125,411.2275,411.22375,411.22,411.21625,411.2125,411.20875,411.205,411.20125,411.1975,411.19375;

Schedule:Day:Hourly, 86f2c378-3da5-4705-89a3-b5363ad2a282, AnyNumber,411.19,411.18667,411.18333,411.18,411.17667,411.17333,411.17,411.16667,411.16333,411.16,411.15667,411.15333,411.15,411.14667,411.14333,411.14,411.13667,411.13333,411.13,411.12667,411.12333,411.12,411.11667,411.11333;

Schedule:Day:Hourly, 4da2eeae-dbe6-4ac4-a094-ba7bc4119370, AnyNumber,411.11,411.10625,411.1025,411.09875,411.095,411.09125,411.0875,411.08375,411.08,411.07625,411.0725,411.06875,411.065,411.06125,411.0575,411.05375,411.05,411.04625,411.0425,411.03875,411.035,411.03125,411.0275,411.02375;

Schedule:Day:Hourly, b970622f-bd2b-429f-b0b8-1405fabcb1ce, AnyNumber,411.02,411.01625,411.0125,411.00875,411.005,411.00125,410.9975,410.99375,410.99,410.98625,410.9825,410.97875,410.975,410.97125,410.9675,410.96375,410.96,410.95625,410.9525,410.94875,410.945,410.94125,410.9375,410.93375;

Schedule:Day:Hourly, 3593aa8d-ba46-4210-894e-20553023eaef, AnyNumber,410.93,410.92667,410.92333,410.92,410.91667,410.91333,410.91,410.90667,410.90333,410.9,410.89667,410.89333,410.89,410.88667,410.88333,410.88,410.87667,410.87333,410.87,410.86667,410.86333,410.86,410.85667,410.85333;

Schedule:Day:Hourly, 3f60180c-4c51-4a95-b229-ede7ed70a9e0, AnyNumber,410.85,410.84625,410.8425,410.83875,410.835,410.83125,410.8275,410.82375,410.82,410.81625,410.8125,410.80875,410.805,410.80125,410.7975,410.79375,410.79,410.78625,410.7825,410.77875,410.775,410.77125,410.7675,410.76375;

Schedule:Day:Hourly, a0fd5acb-cdfb-4fc6-a1bb-096afddcf203, AnyNumber,410.76,410.75667,410.75333,410.75,410.74667,410.74333,410.74,410.73667,410.73333,410.73,410.72667,410.72333,410.72,410.71667,410.71333,410.71,410.70667,410.70333,410.7,410.69667,410.69333,410.69,410.68667,410.68333;

Schedule:Day:Hourly, 7f2c2d47-8b76-47dc-9126-f80c424e34c5, AnyNumber,410.68,410.67667,410.67333,410.67,410.66667,410.66333,410.66,410.65667,410.65333,410.65,410.64667,410.64333,410.64,410.63667,410.63333,410.63,410.62667,410.62333,410.62,410.61667,410.61333,410.61,410.60667,410.60333;

Schedule:Day:Hourly, 1d6ee06d-6a0a-4101-bfc0-0462b49a75d6, AnyNumber,410.6,410.59625,410.5925,410.58875,410.585,410.58125,410.5775,410.57375,410.57,410.56625,410.5625,410.55875,410.555,410.55125,410.5475,410.54375,410.54,410.53625,410.5325,410.52875,410.525,410.52125,410.5175,410.51375;

Schedule:Day:Hourly, b11042ae-a6a2-41eb-b143-728ca3728d43, AnyNumber,410.51,410.50667,410.50333,410.5,410.49667,410.49333,410.49,410.48667,410.48333,410.48,410.47667,410.47333,410.47,410.46667,410.46333,410.46,410.45667,410.45333,410.45,410.44667,410.44333,410.44,410.43667,410.43333;

Schedule:Day:Hourly, 6e71b662-6036-4ac5-b6b4-bceb128b060a, AnyNumber,410.43,410.42667,410.42333,410.42,410.41667,410.41333,410.41,410.40667,410.40333,410.4,410.39667,410.39333,410.39,410.38667,410.38333,410.38,410.37667,410.37333,410.37,410.36667,410.36333,410.36,410.35667,410.35333;

Schedule:Day:Hourly, 53fb68e9-1f49-4a11-b527-680759a3b435, AnyNumber,410.35,410.34708,410.34417,410.34125,410.33833,410.33542,410.3325,410.32958,410.32667,410.32375,410.32083,410.31792,410.315,410.31208,410.30917,410.30625,410.30333,410.30042,410.2975,410.29458,410.29167,410.28875,410.28583,410.28292;

Schedule:Day:Hourly, d8d4321a-aa61-4cd4-b529-85ae5da162ba, AnyNumber,410.28,410.27667,410.27333,410.27,410.26667,410.26333,410.26,410.25667,410.25333,410.25,410.24667,410.24333,410.24,410.23667,410.23333,410.23,410.22667,410.22333,410.22,410.21667,410.21333,410.21,410.20667,410.20333;

Schedule:Day:Hourly, 273e6706-5ba5-4d85-9ed9-b628c3251533, AnyNumber,410.2,410.19708,410.19417,410.19125,410.18833,410.18542,410.1825,410.17958,410.17667,410.17375,410.17083,410.16792,410.165,410.16208,410.15917,410.15625,410.15333,410.15042,410.1475,410.14458,410.14167,410.13875,410.13583,410.13292;

Schedule:Day:Hourly, f5a3ae25-7e4f-4976-8dd2-d5555c777d54, AnyNumber,410.13,410.12708,410.12417,410.12125,410.11833,410.11542,410.1125,410.10958,410.10667,410.10375,410.10083,410.09792,410.095,410.09208,410.08917,410.08625,410.08333,410.08042,410.0775,410.07458,410.07167,410.06875,410.06583,410.06292;

Schedule:Day:Hourly, 8329c600-ef2c-4793-85c7-bb4e72923ffd, AnyNumber,410.06,410.05667,410.05333,410.05,410.04667,410.04333,410.04,410.03667,410.03333,410.03,410.02667,410.02333,410.02,410.01667,410.01333,410.01,410.00667,410.00333,410,409.99667,409.99333,409.99,409.98667,409.98333;

Schedule:Day:Hourly, ff2129d5-0d5b-4815-8d3d-4c59fcd76fab, AnyNumber,409.98,409.9775,409.975,409.9725,409.97,409.9675,409.965,409.9625,409.96,409.9575,409.955,409.9525,409.95,409.9475,409.945,409.9425,409.94,409.9375,409.935,409.9325,409.93,409.9275,409.925,409.9225;

Schedule:Day:Hourly, 333ac42d-b95d-40c9-a499-1c33071ed859, AnyNumber,409.92,409.91708,409.91417,409.91125,409.90833,409.90542,409.9025,409.89958,409.89667,409.89375,409.89083,409.88792,409.885,409.88208,409.87917,409.87625,409.87333,409.87042,409.8675,409.86458,409.86167,409.85875,409.85583,409.85292;

Schedule:Day:Hourly, 07598d24-df72-4c85-8a80-a6928ca3b442, AnyNumber,409.85,409.8475,409.845,409.8425,409.84,409.8375,409.835,409.8325,409.83,409.8275,409.825,409.8225,409.82,409.8175,409.815,409.8125,409.81,409.8075,409.805,409.8025,409.8,409.7975,409.795,409.7925;

Schedule:Day:Hourly, 96097845-0df5-45c3-b603-0c9714b57dcc, AnyNumber,409.79,409.7875,409.785,409.7825,409.78,409.7775,409.775,409.7725,409.77,409.7675,409.765,409.7625,409.76,409.7575,409.755,409.7525,409.75,409.7475,409.745,409.7425,409.74,409.7375,409.735,409.7325;

Schedule:Day:Hourly, 56265f85-17cf-4ae1-a066-c295a78f0e16, AnyNumber,409.73,409.7275,409.725,409.7225,409.72,409.7175,409.715,409.7125,409.71,409.7075,409.705,409.7025,409.7,409.6975,409.695,409.6925,409.69,409.6875,409.685,409.6825,409.68,409.6775,409.675,409.6725;

Schedule:Day:Hourly, b32dcee4-5b85-43f3-8570-115234f62aab, AnyNumber,409.67,409.6675,409.665,409.6625,409.66,409.6575,409.655,409.6525,409.65,409.6475,409.645,409.6425,409.64,409.6375,409.635,409.6325,409.63,409.6275,409.625,409.6225,409.62,409.6175,409.615,409.6125;

Schedule:Day:Hourly, 6a87733a-878f-46bc-bcf3-99e0c41b3a89, AnyNumber,409.61,409.60792,409.60583,409.60375,409.60167,409.59958,409.5975,409.59542,409.59333,409.59125,409.58917,409.58708,409.585,409.58292,409.58083,409.57875,409.57667,409.57458,409.5725,409.57042,409.56833,409.56625,409.56417,409.56208;

Schedule:Day:Hourly, 32caa985-18f8-46ff-9ac5-61871052bdc9, AnyNumber,409.56,409.5575,409.555,409.5525,409.55,409.5475,409.545,409.5425,409.54,409.5375,409.535,409.5325,409.53,409.5275,409.525,409.5225,409.52,409.5175,409.515,409.5125,409.51,409.5075,409.505,409.5025;

Schedule:Day:Hourly, b77b5c81-dea9-4b90-8c7e-178cb9bfabb3, AnyNumber,409.5,409.49833,409.49667,409.495,409.49333,409.49167,409.49,409.48833,409.48667,409.485,409.48333,409.48167,409.48,409.47833,409.47667,409.475,409.47333,409.47167,409.47,409.46833,409.46667,409.465,409.46333,409.46167;

Schedule:Day:Hourly, 79313604-1808-4e27-90c0-478ed630695d, AnyNumber,409.46,409.45792,409.45583,409.45375,409.45167,409.44958,409.4475,409.44542,409.44333,409.44125,409.43917,409.43708,409.435,409.43292,409.43083,409.42875,409.42667,409.42458,409.4225,409.42042,409.41833,409.41625,409.41417,409.41208;

Schedule:Day:Hourly, 1c3aba0e-c597-4920-83d7-19a4f73a46bc, AnyNumber,409.41,409.40833,409.40667,409.405,409.40333,409.40167,409.4,409.39833,409.39667,409.395,409.39333,409.39167,409.39,409.38833,409.38667,409.385,409.38333,409.38167,409.38,409.37833,409.37667,409.375,409.37333,409.37167;

Schedule:Day:Hourly, dbf12901-663a-4ffc-aa46-9956db9eda2c, AnyNumber,409.37,409.36833,409.36667,409.365,409.36333,409.36167,409.36,409.35833,409.35667,409.355,409.35333,409.35167,409.35,409.34833,409.34667,409.345,409.34333,409.34167,409.34,409.33833,409.33667,409.335,409.33333,409.33167;

Schedule:Day:Hourly, 5290eff6-8978-4da4-aafa-64619f5d1a7a, AnyNumber,409.33,409.32833,409.32667,409.325,409.32333,409.32167,409.32,409.31833,409.31667,409.315,409.31333,409.31167,409.31,409.30833,409.30667,409.305,409.30333,409.30167,409.3,409.29833,409.29667,409.295,409.29333,409.29167;

Schedule:Day:Hourly, 488b3c79-1578-4a9d-a583-758f89477d0e, AnyNumber,409.29,409.28833,409.28667,409.285,409.28333,409.28167,409.28,409.27833,409.27667,409.275,409.27333,409.27167,409.27,409.26833,409.26667,409.265,409.26333,409.26167,409.26,409.25833,409.25667,409.255,409.25333,409.25167;

Schedule:Day:Hourly, d5502846-3ef1-4e87-9248-eb98527c227c, AnyNumber,409.25,409.24875,409.2475,409.24625,409.245,409.24375,409.2425,409.24125,409.24,409.23875,409.2375,409.23625,409.235,409.23375,409.2325,409.23125,409.23,409.22875,409.2275,409.22625,409.225,409.22375,409.2225,409.22125;

Schedule:Day:Hourly, 6e1b3b4c-f60b-44f6-80e2-ecd81fd4f941, AnyNumber,409.22,409.21917,409.21833,409.2175,409.21667,409.21583,409.215,409.21417,409.21333,409.2125,409.21167,409.21083,409.21,409.20917,409.20833,409.2075,409.20667,409.20583,409.205,409.20417,409.20333,409.2025,409.20167,409.20083;

Schedule:Day:Hourly, 58588132-8ef6-4efb-84d9-adae43bde581, AnyNumber,409.2,409.19875,409.1975,409.19625,409.195,409.19375,409.1925,409.19125,409.19,409.18875,409.1875,409.18625,409.185,409.18375,409.1825,409.18125,409.18,409.17875,409.1775,409.17625,409.175,409.17375,409.1725,409.17125;

Schedule:Day:Hourly, e91c5b0f-831c-459f-907a-d30b5487924a, AnyNumber,409.17,409.16917,409.16833,409.1675,409.16667,409.16583,409.165,409.16417,409.16333,409.1625,409.16167,409.16083,409.16,409.15917,409.15833,409.1575,409.15667,409.15583,409.155,409.15417,409.15333,409.1525,409.15167,409.15083;

Schedule:Day:Hourly, 58916edd-23e6-40c4-b105-999ce95cf22b, AnyNumber,409.15,409.14917,409.14833,409.1475,409.14667,409.14583,409.145,409.14417,409.14333,409.1425,409.14167,409.14083,409.14,409.13917,409.13833,409.1375,409.13667,409.13583,409.135,409.13417,409.13333,409.1325,409.13167,409.13083;

Schedule:Day:Hourly, 223738c3-c8c4-4a97-b2ca-0b524600a0dd, AnyNumber,409.13,409.12917,409.12833,409.1275,409.12667,409.12583,409.125,409.12417,409.12333,409.1225,409.12167,409.12083,409.12,409.11917,409.11833,409.1175,409.11667,409.11583,409.115,409.11417,409.11333,409.1125,409.11167,409.11083;

Schedule:Day:Hourly, 259b28a4-b002-4bd1-97f5-66cd19b4e9b1, AnyNumber,409.11,409.10958,409.10917,409.10875,409.10833,409.10792,409.1075,409.10708,409.10667,409.10625,409.10583,409.10542,409.105,409.10458,409.10417,409.10375,409.10333,409.10292,409.1025,409.10208,409.10167,409.10125,409.10083,409.10042;

Schedule:Day:Hourly, 70dd5ac2-08bf-48a5-bfea-1365cea18f41, AnyNumber,409.1,409.09958,409.09917,409.09875,409.09833,409.09792,409.0975,409.09708,409.09667,409.09625,409.09583,409.09542,409.095,409.09458,409.09417,409.09375,409.09333,409.09292,409.0925,409.09208,409.09167,409.09125,409.09083,409.09042;

Schedule:Day:Hourly, 914c2212-574d-4244-9560-a0428501c489, AnyNumber,409.09,409.08958,409.08917,409.08875,409.08833,409.08792,409.0875,409.08708,409.08667,409.08625,409.08583,409.08542,409.085,409.08458,409.08417,409.08375,409.08333,409.08292,409.0825,409.08208,409.08167,409.08125,409.08083,409.08042;

Schedule:Day:Hourly, df7d3be9-87d3-4d74-9e3a-3cd968cc4d21, AnyNumber,409.08,409.08,409.08,409.08,409.08,409.08,409.08,409.08,409.08,409.08,409.08,409.08,409.08,409.08,409.08,409.08,409.08,409.08,409.08,409.08,409.08,409.08,409.08,409.08;

Schedule:Day:Hourly, ed9e8a7a-3f6f-4d1b-b396-6a150c8d229c, AnyNumber,409.08,409.08042,409.08083,409.08125,409.08167,409.08208,409.0825,409.08292,409.08333,409.08375,409.08417,409.08458,409.085,409.08542,409.08583,409.08625,409.08667,409.08708,409.0875,409.08792,409.08833,409.08875,409.08917,409.08958;

Schedule:Day:Hourly, 303c9bbd-bbd1-4319-a375-848a89427c17, AnyNumber,409.09,409.09042,409.09083,409.09125,409.09167,409.09208,409.0925,409.09292,409.09333,409.09375,409.09417,409.09458,409.095,409.09542,409.09583,409.09625,409.09667,409.09708,409.0975,409.09792,409.09833,409.09875,409.09917,409.09958;

Schedule:Day:Hourly, 8ad8d86d-a84a-4698-b034-59a7804b336a, AnyNumber,409.1,409.10042,409.10083,409.10125,409.10167,409.10208,409.1025,409.10292,409.10333,409.10375,409.10417,409.10458,409.105,409.10542,409.10583,409.10625,409.10667,409.10708,409.1075,409.10792,409.10833,409.10875,409.10917,409.10958;

Schedule:Day:Hourly, 25150846-167f-4630-8f36-25a710d703b7, AnyNumber,409.11,409.11042,409.11083,409.11125,409.11167,409.11208,409.1125,409.11292,409.11333,409.11375,409.11417,409.11458,409.115,409.11542,409.11583,409.11625,409.11667,409.11708,409.1175,409.11792,409.11833,409.11875,409.11917,409.11958;

Schedule:Day:Hourly, a6ce6ac9-f9a0-49d2-8f9d-7051132900f0, AnyNumber,409.12,409.12083,409.12167,409.1225,409.12333,409.12417,409.125,409.12583,409.12667,409.1275,409.12833,409.12917,409.13,409.13083,409.13167,409.1325,409.13333,409.13417,409.135,409.13583,409.13667,409.1375,409.13833,409.13917;

Schedule:Day:Hourly, 0c423099-24b7-4e13-9b45-62a4ead73eeb, AnyNumber,409.14,409.14083,409.14167,409.1425,409.14333,409.14417,409.145,409.14583,409.14667,409.1475,409.14833,409.14917,409.15,409.15083,409.15167,409.1525,409.15333,409.15417,409.155,409.15583,409.15667,409.1575,409.15833,409.15917;

Schedule:Day:Hourly, 4f09d5b1-9ad3-45b7-bf0e-8de7583a9567, AnyNumber,409.16,409.16125,409.1625,409.16375,409.165,409.16625,409.1675,409.16875,409.17,409.17125,409.1725,409.17375,409.175,409.17625,409.1775,409.17875,409.18,409.18125,409.1825,409.18375,409.185,409.18625,409.1875,409.18875;

Schedule:Day:Hourly, aa5ab5b3-032b-4e22-bfec-4505cef02dae, AnyNumber,409.19,409.19083,409.19167,409.1925,409.19333,409.19417,409.195,409.19583,409.19667,409.1975,409.19833,409.19917,409.2,409.20083,409.20167,409.2025,409.20333,409.20417,409.205,409.20583,409.20667,409.2075,409.20833,409.20917;

Schedule:Day:Hourly, cb10227c-3e3b-4ee5-b133-a03c2a77dee3, AnyNumber,409.21,409.21125,409.2125,409.21375,409.215,409.21625,409.2175,409.21875,409.22,409.22125,409.2225,409.22375,409.225,409.22625,409.2275,409.22875,409.23,409.23125,409.2325,409.23375,409.235,409.23625,409.2375,409.23875;

Schedule:Day:Hourly, 774c30d4-ca4f-4e1c-97c1-d8f8469eedd9, AnyNumber,409.24,409.24125,409.2425,409.24375,409.245,409.24625,409.2475,409.24875,409.25,409.25125,409.2525,409.25375,409.255,409.25625,409.2575,409.25875,409.26,409.26125,409.2625,409.26375,409.265,409.26625,409.2675,409.26875;

Schedule:Day:Hourly, ff8e7fff-255e-4334-97b1-46a480edf2ea, AnyNumber,409.27,409.27167,409.27333,409.275,409.27667,409.27833,409.28,409.28167,409.28333,409.285,409.28667,409.28833,409.29,409.29167,409.29333,409.295,409.29667,409.29833,409.3,409.30167,409.30333,409.305,409.30667,409.30833;

Schedule:Day:Hourly, 697fd295-4dd9-401f-aef7-a4eae91c5fc6, AnyNumber,409.31,409.31167,409.31333,409.315,409.31667,409.31833,409.32,409.32167,409.32333,409.325,409.32667,409.32833,409.33,409.33167,409.33333,409.335,409.33667,409.33833,409.34,409.34167,409.34333,409.345,409.34667,409.34833;

Schedule:Day:Hourly, d36a4637-6af0-4796-8bba-79a5649e0a0a, AnyNumber,409.35,409.35167,409.35333,409.355,409.35667,409.35833,409.36,409.36167,409.36333,409.365,409.36667,409.36833,409.37,409.37167,409.37333,409.375,409.37667,409.37833,409.38,409.38167,409.38333,409.385,409.38667,409.38833;

Schedule:Day:Hourly, 90716e7c-3300-463d-a87f-06461df0e55f, AnyNumber,409.39,409.39167,409.39333,409.395,409.39667,409.39833,409.4,409.40167,409.40333,409.405,409.40667,409.40833,409.41,409.41167,409.41333,409.415,409.41667,409.41833,409.42,409.42167,409.42333,409.425,409.42667,409.42833;

Schedule:Day:Hourly, 51ffa894-16de-46a2-9d0b-639d6f3cdd95, AnyNumber,409.43,409.43167,409.43333,409.435,409.43667,409.43833,409.44,409.44167,409.44333,409.445,409.44667,409.44833,409.45,409.45167,409.45333,409.455,409.45667,409.45833,409.46,409.46167,409.46333,409.465,409.46667,409.46833;

Schedule:Day:Hourly, bcf3a902-50ba-4ee1-b586-81f99a8558d6, AnyNumber,409.47,409.47208,409.47417,409.47625,409.47833,409.48042,409.4825,409.48458,409.48667,409.48875,409.49083,409.49292,409.495,409.49708,409.49917,409.50125,409.50333,409.50542,409.5075,409.50958,409.51167,409.51375,409.51583,409.51792;

Schedule:Day:Hourly, a613c5b2-5c76-48ce-842a-8ecda5b29716, AnyNumber,409.52,409.52208,409.52417,409.52625,409.52833,409.53042,409.5325,409.53458,409.53667,409.53875,409.54083,409.54292,409.545,409.54708,409.54917,409.55125,409.55333,409.55542,409.5575,409.55958,409.56167,409.56375,409.56583,409.56792;

Schedule:Day:Hourly, c0c722e3-c78b-4e84-8ec3-de9b7d0bea08, AnyNumber,409.57,409.57208,409.57417,409.57625,409.57833,409.58042,409.5825,409.58458,409.58667,409.58875,409.59083,409.59292,409.595,409.59708,409.59917,409.60125,409.60333,409.60542,409.6075,409.60958,409.61167,409.61375,409.61583,409.61792;

Schedule:Day:Hourly, cbcda0f9-4a00-48d7-b5d4-459b2862f58d, AnyNumber,409.62,409.62208,409.62417,409.62625,409.62833,409.63042,409.6325,409.63458,409.63667,409.63875,409.64083,409.64292,409.645,409.64708,409.64917,409.65125,409.65333,409.65542,409.6575,409.65958,409.66167,409.66375,409.66583,409.66792;

Schedule:Day:Hourly, 2798da38-3215-45c2-bfba-33e8caf46c7c, AnyNumber,409.67,409.6725,409.675,409.6775,409.68,409.6825,409.685,409.6875,409.69,409.6925,409.695,409.6975,409.7,409.7025,409.705,409.7075,409.71,409.7125,409.715,409.7175,409.72,409.7225,409.725,409.7275;

Schedule:Day:Hourly, e89abba1-26af-45c4-9389-d44f7d539c6d, AnyNumber,409.73,409.73208,409.73417,409.73625,409.73833,409.74042,409.7425,409.74458,409.74667,409.74875,409.75083,409.75292,409.755,409.75708,409.75917,409.76125,409.76333,409.76542,409.7675,409.76958,409.77167,409.77375,409.77583,409.77792;

Schedule:Day:Hourly, 190edab6-d822-421c-8623-86d9b5b4ce16, AnyNumber,409.78,409.7825,409.785,409.7875,409.79,409.7925,409.795,409.7975,409.8,409.8025,409.805,409.8075,409.81,409.8125,409.815,409.8175,409.82,409.8225,409.825,409.8275,409.83,409.8325,409.835,409.8375;

Schedule:Day:Hourly, f26e0083-a8b8-4387-8e96-ed0df13cb477, AnyNumber,409.84,409.8425,409.845,409.8475,409.85,409.8525,409.855,409.8575,409.86,409.8625,409.865,409.8675,409.87,409.8725,409.875,409.8775,409.88,409.8825,409.885,409.8875,409.89,409.8925,409.895,409.8975;

Schedule:Day:Hourly, aaa57963-25a7-4300-a048-1edee90ff74c, AnyNumber,409.9,409.9025,409.905,409.9075,409.91,409.9125,409.915,409.9175,409.92,409.9225,409.925,409.9275,409.93,409.9325,409.935,409.9375,409.94,409.9425,409.945,409.9475,409.95,409.9525,409.955,409.9575;

Schedule:Day:Hourly, d4800b6d-c6a6-44ea-a293-744f544c1bd5, AnyNumber,409.96,409.96292,409.96583,409.96875,409.97167,409.97458,409.9775,409.98042,409.98333,409.98625,409.98917,409.99208,409.995,409.99792,410.00083,410.00375,410.00667,410.00958,410.0125,410.01542,410.01833,410.02125,410.02417,410.02708;

Schedule:Day:Hourly, 1478d7e9-b927-4812-bc91-ad49db3b797f, AnyNumber,410.03,410.0325,410.035,410.0375,410.04,410.0425,410.045,410.0475,410.05,410.0525,410.055,410.0575,410.06,410.0625,410.065,410.0675,410.07,410.0725,410.075,410.0775,410.08,410.0825,410.085,410.0875;

Schedule:Day:Hourly, 6bda6b8f-1109-4d68-8d27-7dc5693e5b1a, AnyNumber,410.09,410.09292,410.09583,410.09875,410.10167,410.10458,410.1075,410.11042,410.11333,410.11625,410.11917,410.12208,410.125,410.12792,410.13083,410.13375,410.13667,410.13958,410.1425,410.14542,410.14833,410.15125,410.15417,410.15708;

Schedule:Day:Hourly, be5f50cd-7688-4a61-ac60-6b48ae19295f, AnyNumber,410.16,410.16292,410.16583,410.16875,410.17167,410.17458,410.1775,410.18042,410.18333,410.18625,410.18917,410.19208,410.195,410.19792,410.20083,410.20375,410.20667,410.20958,410.2125,410.21542,410.21833,410.22125,410.22417,410.22708;

Schedule:Day:Hourly, 673a38a5-88d4-4e76-b404-4164160c4e44, AnyNumber,410.23,410.2325,410.235,410.2375,410.24,410.2425,410.245,410.2475,410.25,410.2525,410.255,410.2575,410.26,410.2625,410.265,410.2675,410.27,410.2725,410.275,410.2775,410.28,410.2825,410.285,410.2875;

Schedule:Day:Hourly, 681bf461-3172-4e64-96a0-ae7275e4fa61, AnyNumber,410.29,410.29292,410.29583,410.29875,410.30167,410.30458,410.3075,410.31042,410.31333,410.31625,410.31917,410.32208,410.325,410.32792,410.33083,410.33375,410.33667,410.33958,410.3425,410.34542,410.34833,410.35125,410.35417,410.35708;

Schedule:Day:Hourly, 6e59cddf-3d4f-47a8-b668-6515b9f25b11, AnyNumber,410.36,410.36333,410.36667,410.37,410.37333,410.37667,410.38,410.38333,410.38667,410.39,410.39333,410.39667,410.4,410.40333,410.40667,410.41,410.41333,410.41667,410.42,410.42333,410.42667,410.43,410.43333,410.43667;

Schedule:Day:Hourly, d1bf5f9d-9379-411b-a41d-8694345734f2, AnyNumber,410.44,410.44292,410.44583,410.44875,410.45167,410.45458,410.4575,410.46042,410.46333,410.46625,410.46917,410.47208,410.475,410.47792,410.48083,410.48375,410.48667,410.48958,410.4925,410.49542,410.49833,410.50125,410.50417,410.50708;

Schedule:Day:Hourly, 3b556207-dec7-45c8-9a8e-ff45e829f58d, AnyNumber,410.51,410.51292,410.51583,410.51875,410.52167,410.52458,410.5275,410.53042,410.53333,410.53625,410.53917,410.54208,410.545,410.54792,410.55083,410.55375,410.55667,410.55958,410.5625,410.56542,410.56833,410.57125,410.57417,410.57708;

Schedule:Day:Hourly, e104c16a-d9ee-4a99-a3c3-0a51f97a4e14, AnyNumber,410.58,410.58292,410.58583,410.58875,410.59167,410.59458,410.5975,410.60042,410.60333,410.60625,410.60917,410.61208,410.615,410.61792,410.62083,410.62375,410.62667,410.62958,410.6325,410.63542,410.63833,410.64125,410.64417,410.64708;

Schedule:Day:Hourly, 07177446-5490-465e-8324-a04bf38a3e74, AnyNumber,410.65,410.65333,410.65667,410.66,410.66333,410.66667,410.67,410.67333,410.67667,410.68,410.68333,410.68667,410.69,410.69333,410.69667,410.7,410.70333,410.70667,410.71,410.71333,410.71667,410.72,410.72333,410.72667;

Schedule:Day:Hourly, f492c958-6a14-4bdb-9cc7-7e7a567d9fee, AnyNumber,410.73,410.73292,410.73583,410.73875,410.74167,410.74458,410.7475,410.75042,410.75333,410.75625,410.75917,410.76208,410.765,410.76792,410.77083,410.77375,410.77667,410.77958,410.7825,410.78542,410.78833,410.79125,410.79417,410.79708;

Schedule:Day:Hourly, 2d5ac8ce-2a0d-43bf-9343-edad5ff796a9, AnyNumber,410.8,410.80333,410.80667,410.81,410.81333,410.81667,410.82,410.82333,410.82667,410.83,410.83333,410.83667,410.84,410.84333,410.84667,410.85,410.85333,410.85667,410.86,410.86333,410.86667,410.87,410.87333,410.87667;

Schedule:Day:Hourly, f91a1297-2dc4-4b05-bd6d-dbad69e09e57, AnyNumber,410.88,410.88292,410.88583,410.88875,410.89167,410.89458,410.8975,410.90042,410.90333,410.90625,410.90917,410.91208,410.915,410.91792,410.92083,410.92375,410.92667,410.92958,410.9325,410.93542,410.93833,410.94125,410.94417,410.94708;

Schedule:Day:Hourly, 58ff0fa1-f2d3-44af-ad22-222c20dc8dd9, AnyNumber,410.95,410.95333,410.95667,410.96,410.96333,410.96667,410.97,410.97333,410.97667,410.98,410.98333,410.98667,410.99,410.99333,410.99667,411,411.00333,411.00667,411.01,411.01333,411.01667,411.02,411.02333,411.02667;

Schedule:Day:Hourly, 525663cf-218c-48ae-a5d8-5337b7fdebf6, AnyNumber,411.03,411.03292,411.03583,411.03875,411.04167,411.04458,411.0475,411.05042,411.05333,411.05625,411.05917,411.06208,411.065,411.06792,411.07083,411.07375,411.07667,411.07958,411.0825,411.08542,411.08833,411.09125,411.09417,411.09708;

Schedule:Day:Hourly, 17ad6c1c-eb9d-45db-8cd9-36448e1626c0, AnyNumber,411.1,411.10333,411.10667,411.11,411.11333,411.11667,411.12,411.12333,411.12667,411.13,411.13333,411.13667,411.14,411.14333,411.14667,411.15,411.15333,411.15667,411.16,411.16333,411.16667,411.17,411.17333,411.17667;

Schedule:Day:Hourly, b274a54f-996c-4cbd-876c-7607fc8916c8, AnyNumber,411.18,411.18333,411.18667,411.19,411.19333,411.19667,411.2,411.20333,411.20667,411.21,411.21333,411.21667,411.22,411.22333,411.22667,411.23,411.23333,411.23667,411.24,411.24333,411.24667,411.25,411.25333,411.25667;

Schedule:Day:Hourly, 2c437556-e4b5-4365-9859-8df87c406e43, AnyNumber,411.26,411.26292,411.26583,411.26875,411.27167,411.27458,411.2775,411.28042,411.28333,411.28625,411.28917,411.29208,411.295,411.29792,411.30083,411.30375,411.30667,411.30958,411.3125,411.31542,411.31833,411.32125,411.32417,411.32708;

Schedule:Day:Hourly, f6e6f42f-62dc-4634-9045-b1a2a7f0386a, AnyNumber,411.33,411.33333,411.33667,411.34,411.34333,411.34667,411.35,411.35333,411.35667,411.36,411.36333,411.36667,411.37,411.37333,411.37667,411.38,411.38333,411.38667,411.39,411.39333,411.39667,411.4,411.40333,411.40667;

Schedule:Day:Hourly, f57b49fa-119e-4237-8800-af76b8bbe751, AnyNumber,411.41,411.41333,411.41667,411.42,411.42333,411.42667,411.43,411.43333,411.43667,411.44,411.44333,411.44667,411.45,411.45333,411.45667,411.46,411.46333,411.46667,411.47,411.47333,411.47667,411.48,411.48333,411.48667;

Schedule:Day:Hourly, c4d51b78-cb43-4612-9cba-1761a3f1769f, AnyNumber,411.49,411.49292,411.49583,411.49875,411.50167,411.50458,411.5075,411.51042,411.51333,411.51625,411.51917,411.52208,411.525,411.52792,411.53083,411.53375,411.53667,411.53958,411.5425,411.54542,411.54833,411.55125,411.55417,411.55708;

Schedule:Day:Hourly, a2ca28ae-860a-440d-851b-fd1441e5f84b, AnyNumber,411.56,411.56333,411.56667,411.57,411.57333,411.57667,411.58,411.58333,411.58667,411.59,411.59333,411.59667,411.6,411.60333,411.60667,411.61,411.61333,411.61667,411.62,411.62333,411.62667,411.63,411.63333,411.63667;

Schedule:Day:Hourly, d6a2b674-0588-425f-af4a-37d59e551542, AnyNumber,411.64,411.64292,411.64583,411.64875,411.65167,411.65458,411.6575,411.66042,411.66333,411.66625,411.66917,411.67208,411.675,411.67792,411.68083,411.68375,411.68667,411.68958,411.6925,411.69542,411.69833,411.70125,411.70417,411.70708;

Schedule:Day:Hourly, 97d358b3-974e-40ce-a070-bede44c68679, AnyNumber,411.71,411.71333,411.71667,411.72,411.72333,411.72667,411.73,411.73333,411.73667,411.74,411.74333,411.74667,411.75,411.75333,411.75667,411.76,411.76333,411.76667,411.77,411.77333,411.77667,411.78,411.78333,411.78667;

Schedule:Day:Hourly, 73647d2b-9484-4a7b-9c8a-616b1dc4005f, AnyNumber,411.79,411.79292,411.79583,411.79875,411.80167,411.80458,411.8075,411.81042,411.81333,411.81625,411.81917,411.82208,411.825,411.82792,411.83083,411.83375,411.83667,411.83958,411.8425,411.84542,411.84833,411.85125,411.85417,411.85708;

Schedule:Day:Hourly, e4d074d8-64eb-45dd-b431-05724c4e6d93, AnyNumber,411.86,411.86292,411.86583,411.86875,411.87167,411.87458,411.8775,411.88042,411.88333,411.88625,411.88917,411.89208,411.895,411.89792,411.90083,411.90375,411.90667,411.90958,411.9125,411.91542,411.91833,411.92125,411.92417,411.92708;

Schedule:Day:Hourly, a32fe5cb-df0a-4228-a894-afaff3cfa481, AnyNumber,411.93,411.93333,411.93667,411.94,411.94333,411.94667,411.95,411.95333,411.95667,411.96,411.96333,411.96667,411.97,411.97333,411.97667,411.98,411.98333,411.98667,411.99,411.99333,411.99667,412,412.00333,412.00667;

Schedule:Day:Hourly, 6cd29933-5a5e-4f4b-b037-94f47cd567ab, AnyNumber,412.01,412.01292,412.01583,412.01875,412.02167,412.02458,412.0275,412.03042,412.03333,412.03625,412.03917,412.04208,412.045,412.04792,412.05083,412.05375,412.05667,412.05958,412.0625,412.06542,412.06833,412.07125,412.07417,412.07708;

Schedule:Day:Hourly, 5f058ec2-6be8-4e4d-838c-d52889fcbac3, AnyNumber,412.08,412.08292,412.08583,412.08875,412.09167,412.09458,412.0975,412.10042,412.10333,412.10625,412.10917,412.11208,412.115,412.11792,412.12083,412.12375,412.12667,412.12958,412.1325,412.13542,412.13833,412.14125,412.14417,412.14708;

Schedule:Day:Hourly, 5b0fa87c-e4a3-46bb-a70a-44ee46327d24, AnyNumber,412.15,412.15292,412.15583,412.15875,412.16167,412.16458,412.1675,412.17042,412.17333,412.17625,412.17917,412.18208,412.185,412.18792,412.19083,412.19375,412.19667,412.19958,412.2025,412.20542,412.20833,412.21125,412.21417,412.21708;

Schedule:Day:Hourly, 876b50a0-a93d-418e-a1d7-64cfcfda8203, AnyNumber,412.22,412.22292,412.22583,412.22875,412.23167,412.23458,412.2375,412.24042,412.24333,412.24625,412.24917,412.25208,412.255,412.25792,412.26083,412.26375,412.26667,412.26958,412.2725,412.27542,412.27833,412.28125,412.28417,412.28708;

Schedule:Day:Hourly, d3864e0b-9ee6-4908-a673-72ba4ee9b484, AnyNumber,412.29,412.29292,412.29583,412.29875,412.30167,412.30458,412.3075,412.31042,412.31333,412.31625,412.31917,412.32208,412.325,412.32792,412.33083,412.33375,412.33667,412.33958,412.3425,412.34542,412.34833,412.35125,412.35417,412.35708;

Schedule:Day:Hourly, bbc27d81-1724-4aaf-8baf-994c018c92f3, AnyNumber,412.36,412.36292,412.36583,412.36875,412.37167,412.37458,412.3775,412.38042,412.38333,412.38625,412.38917,412.39208,412.395,412.39792,412.40083,412.40375,412.40667,412.40958,412.4125,412.41542,412.41833,412.42125,412.42417,412.42708;

Schedule:Day:Hourly, ee2d574a-a9d7-44f1-97ae-99bcd1857118, AnyNumber,412.43,412.43292,412.43583,412.43875,412.44167,412.44458,412.4475,412.45042,412.45333,412.45625,412.45917,412.46208,412.465,412.46792,412.47083,412.47375,412.47667,412.47958,412.4825,412.48542,412.48833,412.49125,412.49417,412.49708;

Schedule:Day:Hourly, ac8a9a51-a34f-45d7-b48e-cf4fd959c64c, AnyNumber,412.5,412.5025,412.505,412.5075,412.51,412.5125,412.515,412.5175,412.52,412.5225,412.525,412.5275,412.53,412.5325,412.535,412.5375,412.54,412.5425,412.545,412.5475,412.55,412.5525,412.555,412.5575;

Schedule:Day:Hourly, ff431e93-2eba-425f-9afb-55ab53bc61e4, AnyNumber,412.56,412.56292,412.56583,412.56875,412.57167,412.57458,412.5775,412.58042,412.58333,412.58625,412.58917,412.59208,412.595,412.59792,412.60083,412.60375,412.60667,412.60958,412.6125,412.61542,412.61833,412.62125,412.62417,412.62708;

Schedule:Day:Hourly, 1597202d-1b82-4189-b8e0-59d1a645d6ac, AnyNumber,412.63,412.6325,412.635,412.6375,412.64,412.6425,412.645,412.6475,412.65,412.6525,412.655,412.6575,412.66,412.6625,412.665,412.6675,412.67,412.6725,412.675,412.6775,412.68,412.6825,412.685,412.6875;

Schedule:Day:Hourly, 40a1f04d-4988-4970-807d-07ab215fff70, AnyNumber,412.69,412.69292,412.69583,412.69875,412.70167,412.70458,412.7075,412.71042,412.71333,412.71625,412.71917,412.72208,412.725,412.72792,412.73083,412.73375,412.73667,412.73958,412.7425,412.74542,412.74833,412.75125,412.75417,412.75708;

Schedule:Day:Hourly, 48fc6954-c5dc-42b7-a7d4-ec22e95a68ca, AnyNumber,412.76,412.7625,412.765,412.7675,412.77,412.7725,412.775,412.7775,412.78,412.7825,412.785,412.7875,412.79,412.7925,412.795,412.7975,412.8,412.8025,412.805,412.8075,412.81,412.8125,412.815,412.8175;

Schedule:Day:Hourly, 8068e4aa-227b-456f-987c-395ba7f27698, AnyNumber,412.82,412.8225,412.825,412.8275,412.83,412.8325,412.835,412.8375,412.84,412.8425,412.845,412.8475,412.85,412.8525,412.855,412.8575,412.86,412.8625,412.865,412.8675,412.87,412.8725,412.875,412.8775;

Schedule:Day:Hourly, bf4a7ad9-ec5e-4cf6-92de-1f95e836e1be, AnyNumber,412.88,412.8825,412.885,412.8875,412.89,412.8925,412.895,412.8975,412.9,412.9025,412.905,412.9075,412.91,412.9125,412.915,412.9175,412.92,412.9225,412.925,412.9275,412.93,412.9325,412.935,412.9375;

Schedule:Day:Hourly, 59ec3815-e26e-477c-9428-93571ab1f843, AnyNumber,412.94,412.9425,412.945,412.9475,412.95,412.9525,412.955,412.9575,412.96,412.9625,412.965,412.9675,412.97,412.9725,412.975,412.9775,412.98,412.9825,412.985,412.9875,412.99,412.9925,412.995,412.9975;

Schedule:Day:Hourly, dad73342-5802-4e5d-b705-87f09a08c342, AnyNumber,413,413.00208,413.00417,413.00625,413.00833,413.01042,413.0125,413.01458,413.01667,413.01875,413.02083,413.02292,413.025,413.02708,413.02917,413.03125,413.03333,413.03542,413.0375,413.03958,413.04167,413.04375,413.04583,413.04792;

Schedule:Day:Hourly, e947bec5-0e66-4961-9811-356498f19432, AnyNumber,413.05,413.0525,413.055,413.0575,413.06,413.0625,413.065,413.0675,413.07,413.0725,413.075,413.0775,413.08,413.0825,413.085,413.0875,413.09,413.0925,413.095,413.0975,413.1,413.1025,413.105,413.1075;

Schedule:Day:Hourly, a93e08d3-23d8-4e61-90f6-e640857dbaac, AnyNumber,413.11,413.1125,413.115,413.1175,413.12,413.1225,413.125,413.1275,413.13,413.1325,413.135,413.1375,413.14,413.1425,413.145,413.1475,413.15,413.1525,413.155,413.1575,413.16,413.1625,413.165,413.1675;

Schedule:Day:Hourly, 56cfe28c-e26c-4ae1-9b92-de3b75fad6b2, AnyNumber,413.17,413.17208,413.17417,413.17625,413.17833,413.18042,413.1825,413.18458,413.18667,413.18875,413.19083,413.19292,413.195,413.19708,413.19917,413.20125,413.20333,413.20542,413.2075,413.20958,413.21167,413.21375,413.21583,413.21792;

Schedule:Day:Hourly, cf6eeb92-4164-458b-8c62-9e9d54c7f01d, AnyNumber,413.22,413.22208,413.22417,413.22625,413.22833,413.23042,413.2325,413.23458,413.23667,413.23875,413.24083,413.24292,413.245,413.24708,413.24917,413.25125,413.25333,413.25542,413.2575,413.25958,413.26167,413.26375,413.26583,413.26792;

Schedule:Day:Hourly, 6b855014-35f2-466b-b997-875977ab0f92, AnyNumber,413.27,413.27208,413.27417,413.27625,413.27833,413.28042,413.2825,413.28458,413.28667,413.28875,413.29083,413.29292,413.295,413.29708,413.29917,413.30125,413.30333,413.30542,413.3075,413.30958,413.31167,413.31375,413.31583,413.31792;

Schedule:Day:Hourly, 2baf0d21-929b-426a-92dd-65ad9007ac3a, AnyNumber,413.32,413.32208,413.32417,413.32625,413.32833,413.33042,413.3325,413.33458,413.33667,413.33875,413.34083,413.34292,413.345,413.34708,413.34917,413.35125,413.35333,413.35542,413.3575,413.35958,413.36167,413.36375,413.36583,413.36792;

Schedule:Day:Hourly, 641109da-5682-4d78-849e-258f9e9d8d02, AnyNumber,413.37,413.37208,413.37417,413.37625,413.37833,413.38042,413.3825,413.38458,413.38667,413.38875,413.39083,413.39292,413.395,413.39708,413.39917,413.40125,413.40333,413.40542,413.4075,413.40958,413.41167,413.41375,413.41583,413.41792;

Schedule:Day:Hourly, caaf64de-ac2c-4458-807e-fba37278728e, AnyNumber,413.42,413.42208,413.42417,413.42625,413.42833,413.43042,413.4325,413.43458,413.43667,413.43875,413.44083,413.44292,413.445,413.44708,413.44917,413.45125,413.45333,413.45542,413.4575,413.45958,413.46167,413.46375,413.46583,413.46792;

Schedule:Day:Hourly, 70125a3f-54b8-4b9e-bd43-01cf7615fdae, AnyNumber,413.47,413.47167,413.47333,413.475,413.47667,413.47833,413.48,413.48167,413.48333,413.485,413.48667,413.48833,413.49,413.49167,413.49333,413.495,413.49667,413.49833,413.5,413.50167,413.50333,413.505,413.50667,413.50833;

Schedule:Day:Hourly, 487d5196-791b-49c7-96b3-f64cdf9bf749, AnyNumber,413.51,413.51208,413.51417,413.51625,413.51833,413.52042,413.5225,413.52458,413.52667,413.52875,413.53083,413.53292,413.535,413.53708,413.53917,413.54125,413.54333,413.54542,413.5475,413.54958,413.55167,413.55375,413.55583,413.55792;

Schedule:Day:Hourly, e1e911c5-e79d-48f7-975b-859d884361ea, AnyNumber,413.56,413.56167,413.56333,413.565,413.56667,413.56833,413.57,413.57167,413.57333,413.575,413.57667,413.57833,413.58,413.58167,413.58333,413.585,413.58667,413.58833,413.59,413.59167,413.59333,413.595,413.59667,413.59833;

Schedule:Day:Hourly, 6cec100b-f946-4206-ad48-274873959a84, AnyNumber,413.6,413.60167,413.60333,413.605,413.60667,413.60833,413.61,413.61167,413.61333,413.615,413.61667,413.61833,413.62,413.62167,413.62333,413.625,413.62667,413.62833,413.63,413.63167,413.63333,413.635,413.63667,413.63833;

Schedule:Day:Hourly, 991cb4b1-243b-4561-a8a0-b52310d6e18e, AnyNumber,413.64,413.64167,413.64333,413.645,413.64667,413.64833,413.65,413.65167,413.65333,413.655,413.65667,413.65833,413.66,413.66167,413.66333,413.665,413.66667,413.66833,413.67,413.67167,413.67333,413.675,413.67667,413.67833;

Schedule:Day:Hourly, e99c2389-07ce-4544-8d5b-44786caaf6c7, AnyNumber,413.68,413.68167,413.68333,413.685,413.68667,413.68833,413.69,413.69167,413.69333,413.695,413.69667,413.69833,413.7,413.70167,413.70333,413.705,413.70667,413.70833,413.71,413.71167,413.71333,413.715,413.71667,413.71833;

Schedule:Day:Hourly, 21747528-96c1-4213-a5ca-902795f3f4d7, AnyNumber,413.72,413.72167,413.72333,413.725,413.72667,413.72833,413.73,413.73167,413.73333,413.735,413.73667,413.73833,413.74,413.74167,413.74333,413.745,413.74667,413.74833,413.75,413.75167,413.75333,413.755,413.75667,413.75833;

Schedule:Day:Hourly, 9794f603-fc42-4ead-b01e-54d921cb1145, AnyNumber,413.76,413.76167,413.76333,413.765,413.76667,413.76833,413.77,413.77167,413.77333,413.775,413.77667,413.77833,413.78,413.78167,413.78333,413.785,413.78667,413.78833,413.79,413.79167,413.79333,413.795,413.79667,413.79833;

Schedule:Day:Hourly, 4f8b35d3-74d2-4d6d-9cea-0490c0965131, AnyNumber,413.8,413.80125,413.8025,413.80375,413.805,413.80625,413.8075,413.80875,413.81,413.81125,413.8125,413.81375,413.815,413.81625,413.8175,413.81875,413.82,413.82125,413.8225,413.82375,413.825,413.82625,413.8275,413.82875;

Schedule:Day:Hourly, 769a9a2b-15c8-4dc2-bf8f-d47f6978397a, AnyNumber,413.83,413.83167,413.83333,413.835,413.83667,413.83833,413.84,413.84167,413.84333,413.845,413.84667,413.84833,413.85,413.85167,413.85333,413.855,413.85667,413.85833,413.86,413.86167,413.86333,413.865,413.86667,413.86833;

Schedule:Day:Hourly, f6342cd0-bc13-4a58-a3d3-aeab71d2f780, AnyNumber,413.87,413.87125,413.8725,413.87375,413.875,413.87625,413.8775,413.87875,413.88,413.88125,413.8825,413.88375,413.885,413.88625,413.8875,413.88875,413.89,413.89125,413.8925,413.89375,413.895,413.89625,413.8975,413.89875;

Schedule:Day:Hourly, d2dfd965-03a6-4075-8bfa-9f963d444851, AnyNumber,413.9,413.90125,413.9025,413.90375,413.905,413.90625,413.9075,413.90875,413.91,413.91125,413.9125,413.91375,413.915,413.91625,413.9175,413.91875,413.92,413.92125,413.9225,413.92375,413.925,413.92625,413.9275,413.92875;

Schedule:Day:Hourly, 24eacfc7-05ce-4021-a0bb-8ebe7c83e7b3, AnyNumber,413.93,413.93167,413.93333,413.935,413.93667,413.93833,413.94,413.94167,413.94333,413.945,413.94667,413.94833,413.95,413.95167,413.95333,413.955,413.95667,413.95833,413.96,413.96167,413.96333,413.965,413.96667,413.96833;

Schedule:Day:Hourly, a41a77c2-e844-44b5-b942-04c4e5e3803d, AnyNumber,413.97,413.97125,413.9725,413.97375,413.975,413.97625,413.9775,413.97875,413.98,413.98125,413.9825,413.98375,413.985,413.98625,413.9875,413.98875,413.99,413.99125,413.9925,413.99375,413.995,413.99625,413.9975,413.99875;

Schedule:Day:Hourly, 9fb19f8e-abec-4c8c-9b68-30d0acb109cb, AnyNumber,414,414.00083,414.00167,414.0025,414.00333,414.00417,414.005,414.00583,414.00667,414.0075,414.00833,414.00917,414.01,414.01083,414.01167,414.0125,414.01333,414.01417,414.015,414.01583,414.01667,414.0175,414.01833,414.01917;

Schedule:Day:Hourly, 266ad578-da56-47a3-9081-dc3ebf68ba46, AnyNumber,414.02,414.02125,414.0225,414.02375,414.025,414.02625,414.0275,414.02875,414.03,414.03125,414.0325,414.03375,414.035,414.03625,414.0375,414.03875,414.04,414.04125,414.0425,414.04375,414.045,414.04625,414.0475,414.04875;

Schedule:Day:Hourly, 3a1dd7e8-03b4-4e2c-8eb5-85e84bae630b, AnyNumber,414.05,414.05125,414.0525,414.05375,414.055,414.05625,414.0575,414.05875,414.06,414.06125,414.0625,414.06375,414.065,414.06625,414.0675,414.06875,414.07,414.07125,414.0725,414.07375,414.075,414.07625,414.0775,414.07875;

Schedule:Day:Hourly, 146185d9-7021-4d97-9776-3ad6980e6ab2, AnyNumber,414.08,414.08125,414.0825,414.08375,414.085,414.08625,414.0875,414.08875,414.09,414.09125,414.0925,414.09375,414.095,414.09625,414.0975,414.09875,414.1,414.10125,414.1025,414.10375,414.105,414.10625,414.1075,414.10875;

Schedule:Day:Hourly, 57eea8d0-5948-4613-b385-92342e48d28f, AnyNumber,414.13,414.13125,414.1325,414.13375,414.135,414.13625,414.1375,414.13875,414.14,414.14125,414.1425,414.14375,414.145,414.14625,414.1475,414.14875,414.15,414.15125,414.1525,414.15375,414.155,414.15625,414.1575,414.15875;

Schedule:Day:Hourly, 269f27f6-9d49-4153-96f2-c22bcc018d7c, AnyNumber,414.22,414.22125,414.2225,414.22375,414.225,414.22625,414.2275,414.22875,414.23,414.23125,414.2325,414.23375,414.235,414.23625,414.2375,414.23875,414.24,414.24125,414.2425,414.24375,414.245,414.24625,414.2475,414.24875;

Schedule:Day:Hourly, 66b1e551-3771-4e40-b995-3045d82db120, AnyNumber,414.27,414.27083,414.27167,414.2725,414.27333,414.27417,414.275,414.27583,414.27667,414.2775,414.27833,414.27917,414.28,414.28083,414.28167,414.2825,414.28333,414.28417,414.285,414.28583,414.28667,414.2875,414.28833,414.28917;

Schedule:Day:Hourly, 991b7402-f0f9-42b1-a9e0-4edcbd81698d, AnyNumber,414.29,414.29042,414.29083,414.29125,414.29167,414.29208,414.2925,414.29292,414.29333,414.29375,414.29417,414.29458,414.295,414.29542,414.29583,414.29625,414.29667,414.29708,414.2975,414.29792,414.29833,414.29875,414.29917,414.29958;

Schedule:Day:Hourly, 3eab41ca-876f-49d2-88b3-a6f30ed7d785, AnyNumber,414.32,414.32083,414.32167,414.3225,414.32333,414.32417,414.325,414.32583,414.32667,414.3275,414.32833,414.32917,414.33,414.33083,414.33167,414.3325,414.33333,414.33417,414.335,414.33583,414.33667,414.3375,414.33833,414.33917;

Schedule:Day:Hourly, b97ded6e-7e26-4e8b-9909-353f5ee0fb8b, AnyNumber,414.34,414.34083,414.34167,414.3425,414.34333,414.34417,414.345,414.34583,414.34667,414.3475,414.34833,414.34917,414.35,414.35083,414.35167,414.3525,414.35333,414.35417,414.355,414.35583,414.35667,414.3575,414.35833,414.35917;

Schedule:Day:Hourly, 1a065973-31f0-4c4d-b767-74f6ea7ad2a0, AnyNumber,414.39,414.39083,414.39167,414.3925,414.39333,414.39417,414.395,414.39583,414.39667,414.3975,414.39833,414.39917,414.4,414.40083,414.40167,414.4025,414.40333,414.40417,414.405,414.40583,414.40667,414.4075,414.40833,414.40917;

Schedule:Day:Hourly, cc005a6a-c15e-4329-939e-a72091330780, AnyNumber,414.41,414.41083,414.41167,414.4125,414.41333,414.41417,414.415,414.41583,414.41667,414.4175,414.41833,414.41917,414.42,414.42083,414.42167,414.4225,414.42333,414.42417,414.425,414.42583,414.42667,414.4275,414.42833,414.42917;

Schedule:Day:Hourly, b2567f66-26e6-4066-95aa-63813c1515a8, AnyNumber,414.44,414.44083,414.44167,414.4425,414.44333,414.44417,414.445,414.44583,414.44667,414.4475,414.44833,414.44917,414.45,414.45083,414.45167,414.4525,414.45333,414.45417,414.455,414.45583,414.45667,414.4575,414.45833,414.45917;

Schedule:Day:Hourly, 529d67a4-c6bc-472a-9a44-53ebbf434308, AnyNumber,414.47,414.47083,414.47167,414.4725,414.47333,414.47417,414.475,414.47583,414.47667,414.4775,414.47833,414.47917,414.48,414.48083,414.48167,414.4825,414.48333,414.48417,414.485,414.48583,414.48667,414.4875,414.48833,414.48917;

Schedule:Day:Hourly, 0c68c272-e78a-4750-aef0-21c1da6f151a, AnyNumber,414.5,414.50083,414.50167,414.5025,414.50333,414.50417,414.505,414.50583,414.50667,414.5075,414.50833,414.50917,414.51,414.51083,414.51167,414.5125,414.51333,414.51417,414.515,414.51583,414.51667,414.5175,414.51833,414.51917;

Schedule:Day:Hourly, 91f8c2d5-993c-49c8-9e00-fe4eb65b2e2f, AnyNumber,414.53,414.53083,414.53167,414.5325,414.53333,414.53417,414.535,414.53583,414.53667,414.5375,414.53833,414.53917,414.54,414.54083,414.54167,414.5425,414.54333,414.54417,414.545,414.54583,414.54667,414.5475,414.54833,414.54917;

Schedule:Day:Hourly, def9b3d2-40f4-4d82-bc85-03b50d45a782, AnyNumber,414.55,414.55042,414.55083,414.55125,414.55167,414.55208,414.5525,414.55292,414.55333,414.55375,414.55417,414.55458,414.555,414.55542,414.55583,414.55625,414.55667,414.55708,414.5575,414.55792,414.55833,414.55875,414.55917,414.55958;

Schedule:Day:Hourly, 58dd0c97-8f78-4fd5-adb8-707b4f0f5edf, AnyNumber,414.56,414.56083,414.56167,414.5625,414.56333,414.56417,414.565,414.56583,414.56667,414.5675,414.56833,414.56917,414.57,414.57083,414.57167,414.5725,414.57333,414.57417,414.575,414.57583,414.57667,414.5775,414.57833,414.57917;

Schedule:Day:Hourly, 516756fe-0097-441e-a72d-adfd30436e14, AnyNumber,414.58,414.58042,414.58083,414.58125,414.58167,414.58208,414.5825,414.58292,414.58333,414.58375,414.58417,414.58458,414.585,414.58542,414.58583,414.58625,414.58667,414.58708,414.5875,414.58792,414.58833,414.58875,414.58917,414.58958;

Schedule:Day:Hourly, 82c35612-a8c8-482f-ba6c-06b4b085eae4, AnyNumber,414.59,414.59083,414.59167,414.5925,414.59333,414.59417,414.595,414.59583,414.59667,414.5975,414.59833,414.59917,414.6,414.60083,414.60167,414.6025,414.60333,414.60417,414.605,414.60583,414.60667,414.6075,414.60833,414.60917;

Schedule:Day:Hourly, 597b02dd-59ea-408d-af48-9a701abce0f4, AnyNumber,414.61,414.61042,414.61083,414.61125,414.61167,414.61208,414.6125,414.61292,414.61333,414.61375,414.61417,414.61458,414.615,414.61542,414.61583,414.61625,414.61667,414.61708,414.6175,414.61792,414.61833,414.61875,414.61917,414.61958;

Schedule:Day:Hourly, d3c8c3a1-ab03-4f4a-847c-07881cc6df4f, AnyNumber,414.62,414.62083,414.62167,414.6225,414.62333,414.62417,414.625,414.62583,414.62667,414.6275,414.62833,414.62917,414.63,414.63083,414.63167,414.6325,414.63333,414.63417,414.635,414.63583,414.63667,414.6375,414.63833,414.63917;

Schedule:Day:Hourly, 84d81ba4-583b-40c6-8496-1dee506ee018, AnyNumber,414.64,414.64083,414.64167,414.6425,414.64333,414.64417,414.645,414.64583,414.64667,414.6475,414.64833,414.64917,414.65,414.65083,414.65167,414.6525,414.65333,414.65417,414.655,414.65583,414.65667,414.6575,414.65833,414.65917;

Schedule:Day:Hourly, f5f8f17b-2c38-4645-9011-d193d192222c, AnyNumber,414.66,414.66042,414.66083,414.66125,414.66167,414.66208,414.6625,414.66292,414.66333,414.66375,414.66417,414.66458,414.665,414.66542,414.66583,414.66625,414.66667,414.66708,414.6675,414.66792,414.66833,414.66875,414.66917,414.66958;

Schedule:Day:Hourly, 96e66f8a-5918-458a-8b29-7e360e16cc36, AnyNumber,414.67,414.67083,414.67167,414.6725,414.67333,414.67417,414.675,414.67583,414.67667,414.6775,414.67833,414.67917,414.68,414.68083,414.68167,414.6825,414.68333,414.68417,414.685,414.68583,414.68667,414.6875,414.68833,414.68917;

Schedule:Day:Hourly, 6203ae24-4570-401b-9cdf-3e4e55b08927, AnyNumber,414.69,414.69042,414.69083,414.69125,414.69167,414.69208,414.6925,414.69292,414.69333,414.69375,414.69417,414.69458,414.695,414.69542,414.69583,414.69625,414.69667,414.69708,414.6975,414.69792,414.69833,414.69875,414.69917,414.69958;

Schedule:Day:Hourly, d9ea127a-ea3e-44f9-b4f6-f443588a29fb, Fraction,0,0,0,0,0,0,0,0,0,0,0,0,0,0,0,0,0,0,0,0,0,0,0,0;

Schedule:Day:Hourly, d5f2dfb6-7999-4fdb-9b38-f50d1062404a, Fraction,0,0,0,0,0,0,0,0,0.1,0.9,0.9,0.9,0.8,0.8,0.8,0.8,0.5,0.2,0.1,0.3,0.3,0.3,0.1,0;

Schedule:Day:Hourly, 79f6dca9-5fe9-478a-bde9-12d42f6e605d, Fraction,0.05,0.05,0.05,0.05,0.05,0.05,0.05,0.05,0.05,0.05,0.05,0.05,0.05,0.05,0.05,0.05,0.05,0.05,0.05,0.05,0.05,0.05,0.05,0.05;

Schedule:Day:Hourly, 03f89016-f015-4308-9cd2-91c3df1526ea, Fraction,0.05,0.05,0.05,0.05,0.05,0.05,0.05,0.05,0.3,0.9,0.9,0.9,0.9,0.9,0.9,0.9,0.7,0.5,0.5,0.7,0.7,0.7,0.3,0.05;

Schedule:Day:Hourly, 1f46022c-dc35-4b1c-a5f3-48aafba85baa, Temperature,18,18,18,18,18,18,18,18,18,18,18,18,18,18,18,18,18,18,18,18,18,18,18,18;

Schedule:Day:Hourly, 4879fb07-a0f9-4e92-8872-17b1081e4b79, Temperature,18,18,18,18,18,18,18,20,22,22,22,22,22,22,22,22,22,22,22,22,22,22,22,18;

Schedule:Day:Hourly, 33a40c0d-4940-46d6-9ed8-d980077da102, Temperature,35,35,35,35,35,35,35,35,35,35,35,35,35,35,35,35,35,35,35,35,35,35,35,35;

Schedule:Day:Hourly, bb316713-af84-4eec-b4fe-3cd8a2147c88, Temperature,35,35,35,35,35,35,35,24,24,24,24,24,24,24,24,24,24,24,24,24,24,24,24,35;

Schedule:Day:Hourly, 35e0ada2-1fee-451a-872b-049bc328d088, Fraction,1,1,1,1,1,1,1,1,0,0,0,0,0,1,0,0,0,0,0,0,0,0,0,0;

Schedule:Day:Hourly, 22a1e51b-2093-4564-b5ed-ae6a32fcb6cb, Fraction,1,1,1,1,1,1,1,1,0,0,0,0,0,0,0,0,0,0,0,0,0,0,0,0;

Schedule:Day:Hourly, 18ce9471-8bdb-489d-965b-bcdf2857541a, Fraction,1,1,1,1,1,1,1,1,0,0,0,1,1,1,1,1,0,0,0,0,0,0,0,1;

Schedule:Day:Hourly, 93c71081-cbe4-4eb5-9f3c-f12a02c83db0, Fraction,1,1,1,1,1,1,1,1,0,0,0,0,0,0,0,0,0,0,0,0,0,0,0,1;

Schedule:Day:Hourly, 1f044a77-4373-4b65-9cfa-418fe716a1c5, Fraction,1,1,1,1,1,1,1,1,0,0,0,0,1,1,1,0,0,0,0,0,0,0,0,0;

Schedule:Day:Hourly, e560b093-007b-4360-b31a-7a0bf4edafff, Fraction,1,1,1,1,1,1,1,1,0,0,0,0,0,0,0,0,0,0,0,0,0,0,1,1;

Schedule:Day:Hourly, 1ec8c980-b02c-47a4-9524-b203a8ab2c3e, Fraction,1,1,1,1,1,1,1,0,0,0,0,0,1,1,1,1,0,0,0,0,0,0,0,1;

Schedule:Day:Hourly, 324a820c-9e79-4287-9929-5af24269ea02, Fraction,1,1,1,1,1,1,1,1,0,0,0,0,1,1,1,1,1,0,0,0,0,0,0,0;

Schedule:Day:Hourly, d2bd790c-733a-41eb-a348-2e58957206cc, Fraction,1,1,1,1,1,1,1,1,0,0,0,0,1,1,1,1,1,0,0,0,0,0,0,1;

Schedule:Day:Hourly, b5ea207a-2cc6-4af2-9c60-944d1f007baf, Fraction,1,1,1,1,1,0,0,0,0,0,1,1,1,1,0,0,0,0,0,0,0,0,1,1;

Schedule:Day:Hourly, 0fb9e873-759a-4ed1-94f3-fcd0b80e411f, Fraction,1,1,1,1,1,0,0,0,0,0,0,0,0,0,0,1,1,1,1,1,1,1,1,1;

Schedule:Day:Hourly, 51f0ba7f-1edf-4522-935d-482393d8bc4a, Fraction,1,1,1,1,1,1,1,0,0,0,0,0,0,0,0,0,0,0,0,0,0,0,1,1;

Schedule:Day:Hourly, c8a7d920-df9d-4fb4-8e97-aad656506ff0, Fraction,1,1,1,1,1,1,1,0,0,0,0,0,0,0,0,0,0,0,0,0,0,0,0,1;

Schedule:Day:Hourly, bfbfc2df-fa15-438a-b2dd-40b7ea6d6a0b, Fraction,1,1,1,1,1,1,1,1,1,1,1,0,0,0,0,0,0,0,0,0,1,1,1,1;

Schedule:Day:Hourly, c1428ebc-0e65-48db-aa2f-6f1fb31db145, Fraction,1,1,1,1,1,1,0,0,0,0,0,0,0,0,0,0,0,0,0,0,0,1,1,1;

Schedule:Day:Hourly, ce9b52fa-82e4-48d7-84cb-e3e2f4bd7fa5, Fraction,1,1,1,1,0,0,0,0,0,0,0,0,0,0,0,0,0,0,0,0,0,1,1,1;

Schedule:Day:Hourly, 281b3a77-3921-41c9-87cf-cd3cf9a1d6b3, Fraction,1,1,1,1,1,1,1,1,1,1,1,1,1,1,0,0,0,0,0,0,1,1,1,1;

Schedule:Day:Hourly, d03e1a2a-7fdf-4387-9508-896c8563ea3d, Fraction,1,1,1,1,1,1,0,0,0,0,0,0,0,0,0,0,0,0,0,0,0,0,1,1;

Schedule:Day:Hourly, cbcab192-8069-4d34-910e-4223db92558d, Fraction,0,1,1,1,1,1,1,1,0,0,0,0,0,1,0,0,0,0,1,1,1,1,1,1;

Schedule:Day:Hourly, 3374cfcf-e8ca-42e8-9193-67e36cd658cd, Fraction,1,1,1,1,1,1,0,0,0,0,0,0,1,1,0,0,1,1,1,1,1,1,1,1;

Schedule:Day:Hourly, 9dc2f2c1-899f-4b0a-b792-ac2eeb1a4e6c, Fraction,1,1,1,1,1,1,1,1,0,0,0,0,0,0,0,0,0,0,0,0,0,1,1,1;

Schedule:Day:Hourly, 13054b51-3002-4484-aeba-b371d14d3692, Fraction,1,1,1,0,0,0,0,0,0,0,0,0,0,0,0,0,0,0,0,0,0,0,0,0;

Schedule:Day:Hourly, b5e365fb-09dc-4d87-84ea-0cbd151cd866, Fraction,1,1,1,1,1,1,1,1,0,0,0,0,1,1,1,1,0,0,0,0,0,0,0,0;

Schedule:Day:Hourly, 019be431-dead-44d3-b7ce-a45f448d86cd, Fraction,0,0,0,0,0,0,0,0,1,1,1,1,1,1,1,1,0,0,0,0,0,0,0,0;

Schedule:Day:Hourly, ebf59084-486f-4765-8e31-6ab24806cde4, Fraction,0,0,0,1,1,1,1,1,0,0,0,0,0,0,0,0,0,0,0,0,0,0,0,0;

Schedule:Day:Hourly, 033443dd-be0d-481a-aa45-34e2afabf295, Fraction,0,0,0,1,1,1,1,1,0,0,0,0,0,1,1,1,0,0,0,0,0,0,0,0;

Schedule:Day:Hourly, b004ddaf-2958-4d42-bbfd-c34962752437, Fraction,0,1,1,1,1,1,1,1,0,0,0,0,0,1,1,0,0,0,0,0,0,0,0,0;

Schedule:Day:Hourly, 3118f7e2-22ff-41b2-8baa-8cf338a4d165, Fraction,0,0,0,0,1,1,1,1,0,0,0,0,0,0,0,0,0,0,0,0,0,0,0,0;

Schedule:Day:Hourly, 76cfda5b-3bcf-4091-91b8-c7317ff53b3f, Fraction,1,1,1,1,1,1,1,1,1,0,1,1,1,1,1,1,1,0,0,1,1,1,1,1;

Schedule:Day:Hourly, dbd1f11d-7d18-4399-a402-b57c5d01dad8, Fraction,1,1,1,1,1,1,1,1,0,0,0,1,1,1,1,1,0,1,1,1,1,1,1,1;

Schedule:Day:Hourly, 5d715e94-220a-4c54-8f28-ad7d20c66552, Fraction,0,1,1,1,1,1,1,1,0,0,0,0,1,1,1,0,0,0,0,0,0,0,0,0;

Schedule:Day:Hourly, 037c2644-b41a-454e-919a-2fa64f1a5a72, Fraction,0,0,0,0,0,0,0,0,0,0,0,0,1,0,0,0,0,0,0,0,0,0,0,0;

Schedule:Day:Hourly, 73acdd30-99d9-4ef9-a6ab-29992fc131c9, Fraction,0,1,1,1,1,1,1,1,0,0,0,0,0,0,0,0,0,0,0,0,0,0,0,0;

Schedule:Day:Hourly, 443bf915-bfa2-47cc-84e2-2f654a24a71c, Fraction,0,1,0,0,1,0,0,0,0,0,0,1,1,1,1,1,1,0,0,0,0,0,0,0;

Schedule:Day:Hourly, 0c0459a7-d2ea-4bfe-a1a3-77e345ad8887, Fraction,0,0,0,0,0,0,0,0,0,0,0,0,1,0,1,0,0,0,0,0,0,0,0,0;

Schedule:Day:Hourly, d0d65797-fe6b-4387-b5c4-f17f0428ef62, Fraction,0,0,0,0,0,0,0,0,0,0,0,1,0,0,1,1,0,0,0,0,0,0,0,1;

Schedule:Day:Hourly, 4ca48648-d144-4590-a357-3cf62a8bad81, Fraction,0,0,0,1,1,1,1,1,0,0,0,1,1,1,1,0,0,0,0,0,0,1,1,0;

Schedule:Day:Hourly, 6e51a55f-234d-41a8-9913-cb78d502f61b, Fraction,0,1,1,1,1,1,1,1,0,0,0,1,1,1,1,1,0,0,1,0,0,1,1,1;

Schedule:Day:Hourly, 6bc8c13f-a8d4-4816-8eb9-3ad649a8b2f3, Fraction,1,1,1,1,1,1,1,1,0,0,0,1,1,1,1,0,0,0,0,1,0,0,1,1;

Schedule:Day:Hourly, 154ac6fe-8fb9-4f76-a37d-10a1e5069a27, Fraction,1,1,1,1,1,1,1,1,1,1,0,0,0,0,0,0,0,0,0,1,1,1,1,1;

Schedule:Day:Hourly, 5bef0665-6dfe-4b99-a0bc-786cea2c9cba, Fraction,1,1,1,1,1,1,1,1,0,0,0,1,1,1,1,1,1,0,1,1,1,1,1,1;

Schedule:Day:Hourly, 2f96a23a-caca-4fab-84d7-b9a738102c7e, Fraction,1,1,0,0,1,1,0,0,0,0,0,1,0,0,1,1,0,0,0,0,0,0,0,0;

Schedule:Day:Hourly, bd2db91d-8010-46a7-ae1e-aebfe4473f82, Fraction,0,1,1,0,1,1,0,0,0,0,0,1,1,1,1,1,1,0,0,0,0,0,0,0;

Schedule:Day:Hourly, 673fec01-a229-454e-ac97-ad268db4b5e5, Fraction,0,0,0,0,1,1,1,1,0,0,0,1,1,1,1,1,0,0,0,0,0,0,0,0;

Schedule:Day:Hourly, 328e2f82-dc52-4c28-ab51-245193f499f0, Fraction,1,1,1,1,1,1,1,1,0,0,0,1,1,1,1,1,0,0,0,0,0,0,0,0;

Schedule:Day:Hourly, 64b10d7a-e558-4ecf-9322-4c9a06b41c83, Fraction,0,0,1,1,1,1,1,0,0,0,0,1,1,1,1,1,1,0,0,0,0,0,0,0;

Schedule:Day:Hourly, b964e233-350c-48eb-b771-c4b9956ab54b, Fraction,0,0,0,0,0,0,0,0,0,0,0,0,0,1,0,0,0,0,0,0,0,0,0,0;

Schedule:Day:Hourly, 036865c2-b0aa-43ea-a3ae-c8f8331be7ac, Fraction,0,0,0,0,0,0,0,0,0,0,0,1,1,1,0,0,0,0,0,0,0,0,0,0;

Schedule:Day:Hourly, daed71a7-0610-444b-b81c-b24dffd950f6, Fraction,0,0,0,0,0,0,0,0,0,0,0,0,1,1,1,1,0,0,0,0,0,0,0,0;

Schedule:Day:Hourly, fbaf94e2-5723-47b8-90b1-441a046a4278, Fraction,0,0,0,1,1,1,1,1,0,0,0,1,1,1,1,1,0,0,0,0,0,0,0,0;

Schedule:Day:Hourly, 8228bc38-434b-4133-9937-87d82ad577f0, Fraction,1,1,1,0,1,1,1,1,0,0,0,1,1,1,1,1,1,0,0,0,0,0,0,1;

Schedule:Day:Hourly, b951dc44-e536-41f1-b4d8-aab17108d7f9, Fraction,1,1,1,1,1,1,1,1,0,0,0,1,1,1,1,1,1,0,0,0,0,0,0,1;

Schedule:Day:Hourly, 104cd10c-28f3-48c2-aed0-745cf36fea65, Fraction,1,1,1,1,0,0,0,1,0,0,1,1,1,1,1,1,1,0,0,0,0,0,0,0;

Schedule:Day:Hourly, d6b4219d-073c-4d59-80b7-35fc61c1e207, Fraction,1,1,1,1,0,0,0,0,0,0,0,1,1,1,1,1,1,0,0,0,0,0,0,0;

Schedule:Day:Hourly, 401568ae-5745-4f16-bda9-d9aedd726401, Fraction,0,0,0,0,0,0,0,0,0,0,0,1,1,1,1,1,0,0,0,0,0,1,1,1;

Schedule:Day:Hourly, 49ce4846-11b3-4de5-90ef-fc16ec9d5b6d, Fraction,1,1,1,1,1,1,1,1,1,1,0,0,0,0,1,1,0,0,0,1,1,0,1,0;

Schedule:Day:Hourly, fcde42c5-a226-4b21-a0d2-13213f855b12, Fraction,0,1,1,1,1,1,1,1,1,1,1,1,0,1,0,1,1,1,1,1,1,1,1,1;

Schedule:Day:Hourly, 542cb977-cef9-4e33-8f3a-5abd994fb8eb, Fraction,1,1,1,1,1,1,1,1,0,0,0,1,0,1,1,0,0,0,0,1,0,1,1,1;

Schedule:Day:Hourly, e51780fd-68b9-485c-b53b-41d4aa329173, Fraction,1,1,1,1,1,1,1,1,0,0,0,1,1,1,1,1,1,1,0,0,0,0,0,0;

Schedule:Day:Hourly, 84655766-7118-4a80-a644-6c94a8cf6aa8, Fraction,1,0,1,1,1,0,1,1,0,0,0,1,1,1,1,1,1,0,0,0,0,0,0,0;

Schedule:Day:Hourly, f23e91b1-e21c-4567-9c25-f2b87eda8942, Fraction,0,0,0,0,0,1,1,0,0,0,0,0,1,1,1,1,0,0,0,0,1,1,1,0;

Schedule:Day:Hourly, 2cbaec49-f577-4647-b3ed-73b7f9b900fd, Fraction,0,1,0,1,1,1,1,1,0,0,0,1,1,1,1,1,1,0,0,0,0,0,0,0;

Schedule:Day:Hourly, f5d9dffc-fe21-496e-b55e-d684c3337099, Fraction,0,1,1,1,1,1,0,1,0,0,0,1,1,1,1,1,1,1,0,0,0,0,0,0;

Schedule:Day:Hourly, bd5b1cea-c878-4f3e-aec0-c2ac0ba00ee3, Fraction,0,0,0,1,1,1,1,1,0,0,0,1,1,1,1,1,1,1,0,0,0,0,0,0;

Schedule:Day:Hourly, 720da34d-5d68-461d-bdb9-e02285c661a7, Fraction,0,0,0,0,1,1,1,1,0,0,0,1,1,1,1,1,1,1,0,0,0,0,0,0;

Schedule:Day:Hourly, a4b975cc-a5df-49b6-abae-d9247bb6c1d3, Fraction,0,0,1,1,1,1,1,1,0,0,0,1,1,1,1,1,0,1,1,1,0,1,1,1;

Schedule:Day:Hourly, 05eb5a75-9c5d-4888-a75e-297719e52851, Fraction,0,0,0,0,1,1,1,1,0,0,1,1,1,1,1,1,1,0,0,0,0,0,0,0;

Schedule:Day:Hourly, 3d478d37-2a01-4d7a-8394-87f420d4056f, Fraction,0,0,0,0,0,1,0,0,0,1,1,1,1,1,1,1,1,1,0,0,0,0,0,0;

Schedule:Day:Hourly, bb5da403-a042-4ac0-830c-c49b77a5b3c6, Fraction,0,0,0,1,1,1,1,0,0,0,0,1,1,1,1,1,1,1,0,0,0,0,0,0;

Schedule:Day:Hourly, 144b99c6-371d-4e34-96fd-79be05b5df0d, Fraction,1,1,1,0,1,0,1,1,0,0,0,0,1,1,1,1,1,0,0,0,0,0,0,0;

Schedule:Day:Hourly, 101a4458-ffe6-4b53-8dd8-2467d667ba35, Fraction,0,0,1,1,1,1,1,1,0,1,1,1,1,1,0,1,0,0,0,1,0,0,1,1;

Schedule:Day:Hourly, d3e8e271-9eeb-4542-a96c-283e1dd3b835, Fraction,1,1,1,1,1,1,0,1,0,1,1,1,1,1,1,1,1,1,0,0,0,0,0,0;

Schedule:Day:Hourly, 6d3bdc77-4564-471a-929c-e30b6d66f166, Fraction,0,1,1,1,1,1,0,1,0,0,0,1,1,1,0,0,0,0,0,0,0,0,0,1;

Schedule:Day:Hourly, 4dec3c6f-ebbe-4840-a156-b83b58bf089e, Fraction,1,1,1,1,1,1,1,1,0,1,1,1,1,1,1,0,1,0,0,1,1,1,1,1;

Schedule:Day:Hourly, bcd3defc-df3e-4200-aec8-a559f004c132, Fraction,1,1,1,1,1,1,1,0,0,0,0,0,1,1,1,1,0,0,0,0,0,0,1,0;

Schedule:Day:Hourly, a24f8b0f-d930-4ec6-852d-d49dbee14f27, Fraction,0,0,1,1,1,1,1,1,0,1,1,1,1,1,1,1,1,1,1,0,0,0,0,0;

Schedule:Day:Hourly, a3c9ef1d-5eb3-489d-aa31-011d2b399981, Fraction,1,1,1,1,1,1,1,1,0,0,1,1,1,0,0,0,0,0,0,1,0,1,1,1;

Schedule:Day:Hourly, 40cf7150-3db1-49aa-a175-be7604a9d796, Fraction,1,1,1,1,1,1,1,1,0,0,0,1,1,1,1,1,0,0,0,0,0,1,1,1;

Schedule:Day:Hourly, 597e3bcf-50a5-4cee-bcda-a732ee54fb23, Fraction,1,1,1,1,1,1,1,1,0,1,1,0,1,1,1,0,0,0,0,1,1,1,1,1;

Schedule:Day:Hourly, 0c51b05c-c17b-42b0-8bf1-f191514907be, Fraction,1,1,1,1,1,1,1,1,0,0,1,1,1,1,1,1,1,1,0,0,0,0,0,0;

Schedule:Day:Hourly, 70282c88-819a-4162-8587-557ea488a8a5, Fraction,0,1,1,0,1,1,1,1,0,1,1,1,1,1,1,1,0,1,1,1,1,1,1,1;

Schedule:Day:Hourly, d17734a9-dc6c-469e-8905-0c99d4a1be19, Fraction,1,1,0,1,1,1,1,1,0,0,1,1,1,0,0,0,1,1,0,1,1,1,1,1;

Schedule:Day:Hourly, 5952833e-0dd6-4ae0-bab6-279d1a92a5dd, Fraction,1,1,1,1,1,1,1,1,0,0,1,1,1,1,1,0,1,1,1,1,1,1,1,1;

Schedule:Day:Hourly, 47d8ac42-281f-4586-a929-903761bdd1a7, Fraction,1,1,1,1,1,1,1,1,1,0,1,1,1,1,1,0,1,0,0,1,1,1,1,1;

Schedule:Day:Hourly, 186611b7-1db5-4e3a-8355-d0dec1fedc26, Fraction,1,1,1,1,1,1,1,1,1,1,1,1,1,1,0,0,0,0,0,0,0,1,1,1;

Schedule:Day:Hourly, 84098980-877e-4635-a828-91e21f81b511, Fraction,1,1,1,1,0,0,0,0,0,0,1,1,1,1,1,1,1,0,0,0,0,0,0,0;

Schedule:Day:Hourly, 03b0116c-4688-4797-a88d-1b1f29f30a07, Fraction,0,1,1,1,1,1,1,1,0,0,0,1,1,1,1,1,1,1,0,0,0,0,0,0;

Schedule:Day:Hourly, bd368ace-ef05-4c35-a01c-8a563ed94cf9, Fraction,0,1,0,0,1,0,1,0,0,0,1,1,1,1,1,1,1,0,0,0,0,0,0,0;

Schedule:Day:Hourly, e1601026-7a88-4fbe-9fa2-717b51dc1f14, Fraction,0,1,1,1,1,1,1,1,0,1,1,1,1,1,1,1,1,1,0,0,0,0,0,0;

Schedule:Day:Hourly, bb575d25-fef9-4371-8b21-18cc0cde7ad8, Fraction,0,0,0,0,1,0,0,0,0,1,1,1,1,1,1,1,1,1,1,0,0,0,0,0;

Schedule:Day:Hourly, 56f694f2-8025-4063-bb34-8da1a62c7792, Fraction,0,0,0,0,1,1,0,1,0,0,1,1,0,1,1,1,1,1,1,1,1,1,1,1;

Schedule:Day:Hourly, c75b36c4-872b-4d70-8e66-6397ceceeee9, Fraction,1,1,1,1,1,1,1,1,0,0,0,1,1,1,1,1,1,0,0,0,0,0,0,0;

Schedule:Day:Hourly, d8146e5e-3f8d-44b3-8039-e293e5046815, Fraction,0,1,1,1,1,1,1,1,0,0,1,1,1,0,0,0,0,0,0,0,0,0,0,1;

Schedule:Day:Hourly, aa027ed6-10fd-491e-b979-7c4df764123a, Fraction,1,1,1,1,1,1,1,1,0,0,1,1,1,1,1,1,1,0,1,0,0,0,0,0;

Schedule:Day:Hourly, 5b8cced1-8d09-420b-bea1-3bcd082d2a59, Fraction,0,0,0,0,1,1,0,0,0,0,1,1,0,0,0,1,1,0,0,1,1,1,1,1;

Schedule:Day:Hourly, aaadf03e-f1ed-4584-b967-708c863af830, Fraction,1,1,1,1,1,1,1,1,0,0,0,1,1,1,1,0,0,1,1,1,1,1,1,1;

Schedule:Day:Hourly, 9271a65d-f0a2-4518-ab25-2b1222f43614, Fraction,1,1,1,1,1,1,1,1,0,0,0,1,1,1,1,0,1,1,0,0,0,0,0,0;

Schedule:Day:Hourly, a03383d5-79b0-4cc1-9102-54055f6fa786, Fraction,0,0,0,0,1,0,0,0,0,1,0,1,1,1,0,1,1,1,1,1,1,1,1,1;

Schedule:Day:Hourly, d9bd1216-b212-4bb2-9107-dec962127257, Fraction,1,1,1,1,1,1,1,1,1,0,0,1,1,1,1,1,0,0,0,0,0,0,0,0;

Schedule:Day:Hourly, 2c3b5ebd-3111-4c17-b66e-443d69483076, Fraction,1,1,1,1,1,1,1,1,0,1,1,1,1,1,1,0,0,0,0,0,0,0,0,0;

Schedule:Day:Hourly, 263132f3-57e5-4e7f-9b16-8f6529a17f7c, Fraction,1,1,1,0,1,1,0,1,0,0,0,1,1,1,0,0,0,0,0,0,0,0,0,0;

Schedule:Day:Hourly, 1b73200d-bde2-4e65-af20-2fa226fcb48a, Fraction,0,0,0,0,0,0,0,0,1,1,1,1,1,1,1,1,1,1,1,0,0,0,0,0;

Schedule:Day:Hourly, 8635af30-c595-4629-9129-95f505b9506e, Fraction,0,0,0,0,1,0,1,1,1,1,1,1,1,1,1,1,1,1,0,0,0,0,0,0;

Schedule:Day:Hourly, ad4a0e78-dd8a-4dbe-b05a-ba8400d12c34, Fraction,0,0,0,0,0,1,1,1,1,1,1,1,1,1,1,1,1,1,1,0,0,0,0,0;

Schedule:Day:Hourly, 36c5c6dd-eb97-4d93-bd78-dbd075d1ee1b, Fraction,0,0,0,0,1,0,1,0,0,1,1,1,1,1,1,1,1,1,1,0,0,0,0,0;

Schedule:Day:Hourly, 5111b8af-08af-4e27-b4db-bae5f85f107f, Fraction,0,0,0,0,1,1,1,1,0,1,1,1,1,1,1,1,1,1,1,0,0,0,0,0;

Schedule:Day:Hourly, e6003aaa-db7a-4cde-babe-521403300f0f, Fraction,0,0,0,0,0,0,0,0,1,1,1,1,1,1,0,0,0,0,0,1,0,0,0,0;

Schedule:Day:Hourly, d42c45ce-fbda-4b08-bce1-e1fdf0205d69, Fraction,0,1,0,0,1,0,1,1,0,1,1,1,1,0,1,0,0,0,0,0,0,0,0,1;

Schedule:Day:Hourly, bdf076c8-aa22-4d61-b4fc-447625afc682, Fraction,1,0,1,1,1,1,1,0,0,1,1,1,0,0,1,1,1,0,0,0,0,0,0,0;

Schedule:Day:Hourly, b9d22d3b-71d2-4377-8607-78e92197aa42, Fraction,1,1,0,1,1,1,1,1,0,1,1,1,1,1,1,0,0,0,0,0,0,0,0,0;

Schedule:Day:Hourly, 2e7f09d8-3a33-4b4e-8b59-d441d2a0bb7c, Fraction,0,1,1,1,1,1,1,1,0,1,1,1,0,1,1,1,0,1,0,1,1,0,1,0;

Schedule:Day:Hourly, 2c4de5b4-676e-43c5-8055-8066f0c48a3f, Fraction,1,1,1,1,1,1,1,1,0,0,0,0,1,0,0,0,0,0,0,0,0,0,1,0;

Schedule:Day:Hourly, 8e029877-b215-471b-a3d8-5c1cc8bc365b, Fraction,1,1,0,1,1,1,1,1,0,1,1,1,1,1,1,1,1,1,0,0,0,0,0,0;

Schedule:Day:Hourly, c8cde78c-e308-450c-a688-6e47071ecba6, Fraction,0,0,0,0,0,0,0,0,0,1,1,0,0,1,1,0,0,0,0,0,0,1,1,1;

Schedule:Day:Hourly, f87c2997-4a22-4960-99c3-c290975bd6d5, Fraction,1,1,1,1,1,1,0,0,0,0,1,1,1,1,1,1,1,1,0,0,0,0,0,0;

Schedule:Day:Hourly, 4f585860-18b9-4ac7-aa09-0524684b216c, Fraction,0,0,0,0,0,0,0,0,0,0,1,1,1,1,1,1,1,1,0,0,0,0,0,0;

Schedule:Day:Hourly, 92a99a64-2e8a-47e6-bd10-86ae4ffcd058, Fraction,0,0,0,1,1,1,0,0,0,0,0,0,1,1,0,0,1,1,0,0,0,1,1,1;

Schedule:Day:Hourly, a9581180-73f1-445c-b220-8a3599919bc0, Fraction,1,1,1,1,1,1,1,1,0,1,1,1,0,0,0,0,0,0,0,0,0,0,0,1;

Schedule:Day:Hourly, ffe9693d-cba8-4656-ba5e-c0fcf7cfd1aa, Fraction,1,1,1,1,1,1,1,1,1,0,0,0,1,1,1,1,0,0,0,0,0,0,1,1;

Schedule:Day:Hourly, e7d0f24e-2a79-449a-b914-825c02bf48bf, Fraction,1,1,1,1,1,1,1,1,0,0,1,1,1,1,1,1,1,0,0,0,0,0,0,0;

Schedule:Day:Hourly, 32b8ac8a-0c12-4924-b2f7-85b381cd1c16, Fraction,1,1,1,1,1,1,1,1,0,0,1,1,1,1,0,0,1,1,1,1,1,1,1,1;

Schedule:Day:Hourly, 4b87aed5-e8ee-4a6f-b250-1005cea65da3, Fraction,1,1,1,1,1,1,1,1,0,0,1,1,1,1,0,0,0,1,1,1,1,1,1,1;

Schedule:Day:Hourly, 0aaa7bcc-497a-4607-aca6-c96565fd58ed, Fraction,0,0,0,0,1,1,1,1,0,0,0,0,0,0,0,0,0,0,0,0,0,0,1,1;

Schedule:Day:Hourly, 24cd38cf-6549-4cde-b228-82bc1c773714, Fraction,1,1,1,1,1,1,1,1,1,1,1,1,1,1,1,1,1,1,1,0,0,0,0,0;

Schedule:Day:Hourly, 93429806-64e9-4ef9-a993-53d9ea7bfa59, Fraction,0,0,0,0,0,0,0,0,0,0,1,1,1,1,1,0,0,0,0,0,0,1,1,1;

Schedule:Day:Hourly, b1ad10cd-9f4f-4c01-90f3-a9fc60b02d29, Fraction,1,1,1,1,1,1,1,1,1,0,0,0,1,1,1,1,1,0,0,0,0,0,0,0;

Schedule:Day:Hourly, 1f6dd566-09e1-4fab-9511-350aed55dfb4, Fraction,0,1,0,0,0,1,1,1,0,0,1,1,1,0,0,0,0,0,0,0,0,0,0,0;

Schedule:Day:Hourly, 993e9391-22bb-4028-8e26-d2a81c76591b, Fraction,1,1,1,1,1,1,1,1,1,0,0,0,0,0,0,0,1,1,0,0,0,0,0,0;

Schedule:Day:Hourly, 1cf3126f-f758-4047-aff0-bca489412336, Fraction,0,0,0,1,1,0,0,0,0,1,1,1,0,0,0,0,0,0,0,0,0,0,0,0;

Schedule:Day:Hourly, 39b771b2-a980-4721-9fbd-bb82bc33320a, Fraction,0,0,0,0,0,0,0,0,0,1,1,1,0,0,0,0,0,0,0,0,1,1,1,1;

Schedule:Day:Hourly, 1fca9003-f92a-40b5-9276-8de7f9229d0e, Fraction,1,1,1,1,1,1,1,1,0,0,1,1,1,1,1,1,1,1,1,0,0,0,0,0;

Schedule:Day:Hourly, bf69910e-302e-4d5d-8f7b-2db65928aae6, Fraction,0,1,1,1,1,1,0,0,0,1,1,1,1,1,1,1,1,0,0,0,0,0,0,0;

Schedule:Day:Hourly, 1ddc7ad3-d268-423d-b9ef-a5decc2562e4, Fraction,0,1,1,1,1,1,1,1,1,0,0,1,1,1,1,1,0,0,0,0,0,0,0,0;

Schedule:Day:Hourly, faaa7842-4c6c-4ef7-afeb-d61a35a55d33, Fraction,0,0,0,0,0,0,0,0,0,0,0,0,1,1,1,1,0,0,0,0,0,0,0,1;

Schedule:Day:Hourly, 657eb751-9b13-44ce-9e96-2a48266ff616, Fraction,0,0,0,0,0,0,0,0,0,0,0,0,1,1,1,1,1,1,0,0,0,0,0,0;

Schedule:Day:Hourly, af898841-d3d3-4b33-9f52-789d41f2738b, Fraction,0,0,1,1,1,1,1,1,0,0,0,0,0,0,0,0,0,0,0,0,0,0,0,0;

Schedule:Day:Hourly, fd688387-9499-4591-a57c-4b70abe1bad6, Fraction,0,0,0,0,0,0,0,0,0,0,0,0,0,0,0,0,0,0,0,0,0,0,1,1;

Schedule:Day:Hourly, 2d760525-19a6-48a2-aa2b-80dd83e4684c, Fraction,0,0,0,1,1,1,1,1,1,0,0,0,0,0,0,0,1,0,0,0,0,0,0,0;

Schedule:Day:Hourly, 674b4eaa-2aa8-4d6a-957b-2815946675b6, Fraction,0,0,0,1,1,1,1,1,0,0,1,1,1,1,1,1,1,0,0,0,0,0,0,0;

Schedule:Day:Hourly, 88dae2dc-b2b6-483f-aad9-57490e7ec9bf, Fraction,0,1,1,1,1,1,1,0,0,0,1,1,1,1,1,1,1,1,0,0,0,0,0,0;

Schedule:Day:Hourly, 3e5202b2-92b1-4bd3-b872-ac2f51082082, Fraction,0,0,0,0,0,0,0,0,0,1,1,1,1,1,1,1,0,0,0,0,0,0,0,0;

Schedule:Day:Hourly, 5fa37d88-9791-4811-b504-9434ee3b7cc9, Fraction,0,1,1,1,1,1,1,1,1,1,1,0,1,1,1,1,1,1,0,0,0,0,0,0;

Schedule:Day:Hourly, bcfbfcb5-970f-4759-8ff8-104563bd61c5, Fraction,0,1,0,1,0,0,0,1,0,0,1,1,1,1,1,1,1,1,1,0,1,1,0,0;

Schedule:Day:Hourly, 9bfe587a-8cee-4c54-b5fe-e9048f15d1c4, Fraction,0,0,0,0,0,0,0,0,0,0,1,1,1,1,1,1,1,1,1,1,0,0,0,0;

Schedule:Day:Hourly, 84ccb1a8-6ff8-454e-a66c-c8c71aed1be8, Fraction,0,0,0,0,0,0,0,0,1,1,1,1,1,1,1,1,1,0,0,0,0,0,0,0;

Schedule:Day:Hourly, 9c0c3f4b-d4a6-4dee-9c4d-c9b7b78d7c47, Fraction,0,0,0,0,0,0,0,0,0,0,1,0,0,1,1,1,1,1,1,0,0,0,0,0;

Schedule:Day:Hourly, 6896cc22-7d9c-40a6-8f16-9a0ea75945f6, Fraction,0,0,0,1,1,0,0,0,0,1,1,1,1,0,0,0,0,0,0,0,0,0,1,0;

Schedule:Day:Hourly, 62ef4096-a4e5-444d-bcbb-7f82a5c35e1a, Fraction,0,1,1,1,1,0,1,1,0,0,0,0,1,1,1,1,1,1,1,0,0,0,0,0;

Schedule:Day:Hourly, 2f7a5285-7309-4b83-95e1-5d5cfa6285ab, Fraction,0,1,0,0,1,0,1,0,0,1,1,1,1,1,1,1,1,1,1,1,0,0,0,0;

Schedule:Day:Hourly, d2f2f440-4eff-4442-9606-db8f940ce1ef, Fraction,0,0,0,0,0,0,0,0,0,1,1,1,1,1,1,1,1,1,1,1,1,0,0,0;

Schedule:Day:Hourly, a30d819a-71b9-42c9-8859-ec36a8cf5ef9, Fraction,0,0,0,0,0,0,0,0,1,1,1,1,1,1,1,1,1,1,1,1,1,0,0,0;

Schedule:Day:Hourly, 14c777df-a2c5-4c2f-bb9e-070d2fbe33cf, Fraction,0,0,0,0,0,0,0,1,0,1,0,0,1,1,1,0,0,1,0,0,0,0,0,0;

Schedule:Day:Hourly, 660652b9-3721-4b41-99dc-b03b67c93e71, Fraction,0,0,0,1,1,1,1,0,0,0,0,1,1,1,1,1,1,0,0,0,0,0,0,0;

Schedule:Day:Hourly, 3b91de32-229d-44a8-aa6d-28e4ecfa2c41, Fraction,0,1,0,0,0,0,0,0,0,1,1,1,1,1,1,1,1,1,1,0,1,0,0,0;

Schedule:Day:Hourly, c4d38773-d9ac-4b7a-ab6d-3e1d3619054b, Fraction,0,0,0,0,0,0,0,0,0,0,0,1,1,1,1,1,1,0,1,1,1,1,1,0;

Schedule:Day:Hourly, 3da5c000-3493-4a5d-90ba-b15c4c908312, Fraction,0,1,1,0,1,0,0,1,0,0,0,1,1,1,0,0,1,0,0,1,1,1,1,0;

Schedule:Day:Hourly, 4485477b-6b4d-4f2f-af3b-db664b62b9fd, Fraction,1,1,1,1,1,1,1,1,0,0,0,1,1,1,1,1,1,1,0,0,0,0,1,1;

Schedule:Day:Hourly, 243a0351-07d0-4e53-9c2b-3f13525cdd30, Fraction,0,1,0,0,1,1,1,1,0,0,1,1,1,0,0,0,0,1,0,1,1,0,1,1;

Schedule:Day:Hourly, ad7e3b5e-c18f-4ffb-95a0-f826f2483b09, Fraction,1,1,1,1,0,0,0,0,0,0,0,1,1,0,1,1,1,1,1,0,0,0,0,0;

Schedule:Day:Hourly, 28ec533d-432d-49b4-978b-de4e0cbf42eb, Fraction,0,0,0,0,1,1,1,1,1,0,1,1,1,0,1,1,1,0,0,0,0,0,0,0;

Schedule:Day:Hourly, ba25d5d5-5386-42b3-a132-874a2e86e97f, Fraction,0,1,1,1,1,1,1,1,0,0,0,1,1,1,1,1,0,0,0,0,0,0,0,0;

Schedule:Day:Hourly, ad21c7c2-1df8-489a-94d8-c8b1ac079d80, Fraction,0,0,0,0,0,0,0,0,0,0,0,1,1,0,1,1,1,1,0,0,0,0,0,0;

Schedule:Day:Hourly, 7ca5b782-b2c2-4ebd-9b04-9f59a634770c, Fraction,0,0,0,0,0,0,0,0,0,1,0,1,1,1,1,1,1,1,0,0,0,0,0,0;

Schedule:Day:Hourly, c7d08f1d-b857-4d15-bfd6-e455226b22ad, Fraction,0,0,0,0,0,0,0,0,0,0,1,1,1,0,1,1,1,1,0,0,0,0,0,0;

Schedule:Day:Hourly, 460d9812-1e10-4f3f-bbaf-33d8d5a661d0, Fraction,0,0,0,0,0,0,1,1,1,0,1,0,0,0,0,0,0,0,0,1,0,0,0,0;

Schedule:Day:Hourly, ef5c960d-f105-439e-8330-a7b7c658db9c, Fraction,1,0,0,0,1,0,0,0,0,0,1,1,0,1,1,1,1,0,0,0,0,0,0,0;

Schedule:Day:Hourly, e26bd28e-f679-40df-93e8-6b434ca271d5, Fraction,0,0,0,0,0,0,0,0,0,1,1,1,0,0,1,1,1,1,0,0,0,0,0,0;

Schedule:Day:Hourly, a4e0b79d-80da-4a7b-8d59-48567f5602fe, Fraction,0,0,0,0,0,0,0,0,0,1,1,1,1,1,1,1,1,1,1,0,0,0,0,0;

Schedule:Day:Hourly, 7ea5de64-d697-454c-a98f-be79bc611366, Fraction,0,0,0,0,0,0,0,0,0,1,1,1,0,0,1,1,1,0,0,0,0,0,0,0;

Schedule:Day:Hourly, a53ca86f-7009-49da-825f-5cb0102909fa, Fraction,0,0,0,0,1,0,0,0,0,0,1,1,1,1,1,1,1,1,0,0,0,0,1,0;

Schedule:Day:Hourly, 26cfb7eb-76ab-47bc-aa42-0c9ff96b8a4d, Fraction,0,1,1,1,1,1,1,0,0,0,1,1,1,0,0,0,0,0,1,1,1,1,1,1;

Schedule:Day:Hourly, 425ba9f7-c8d1-4060-ac42-2211b0350688, Fraction,1,1,1,1,1,1,0,0,0,0,1,1,1,0,1,1,1,1,0,0,0,0,0,0;

Schedule:Day:Hourly, 49835cdc-4148-4331-bee0-f7c8662ee433, Fraction,0,1,1,1,1,1,1,1,0,0,0,0,0,0,1,1,0,0,0,0,0,0,0,0;

Schedule:Day:Hourly, 11256a9a-c2b2-4ac5-b30d-246abc56750b, Fraction,1,0,1,1,1,1,1,1,0,0,1,1,1,1,1,1,1,1,1,1,1,1,1,1;

Schedule:Day:Hourly, 5109f2aa-8969-47a7-9f32-6cc3f5138566, Fraction,1,1,1,1,1,1,1,1,1,1,0,0,1,0,0,0,0,0,0,0,0,0,0,1;

Schedule:Day:Hourly, 56ad522b-182b-490b-9b25-f45cb2f8a837, Fraction,1,1,1,1,1,1,1,1,0,0,0,0,0,0,1,1,0,0,0,0,1,0,0,1;

Schedule:Day:Hourly, 16d47b23-c498-49ed-9a5f-c29565e037f6, Fraction,1,1,1,1,1,1,1,1,0,0,0,0,0,0,1,1,0,0,0,0,0,0,0,0;

Schedule:Day:Hourly, 0131145e-e660-43d2-bbe1-57789cf025ac, Fraction,0,1,0,1,1,1,1,1,0,0,0,1,1,1,0,0,0,0,0,0,0,0,0,0;

Schedule:Day:Hourly, 9288f4fb-3710-4ef5-b1e0-d82ae9ef9568, Fraction,0,1,1,1,1,1,1,1,1,0,0,1,1,1,1,1,1,0,0,0,0,0,0,0;

Schedule:Day:Hourly, 13a9b8c3-8a91-4b57-aaae-bc0171401b73, Fraction,0,0,0,1,1,1,1,1,0,0,0,1,1,1,1,1,1,1,1,0,0,0,0,0;

Schedule:Day:Hourly, a1009dd8-b065-4024-9c5c-a666e5a5dde4, Fraction,0,0,0,1,1,1,1,1,0,0,1,1,1,0,1,1,1,0,1,1,1,1,1,1;

Schedule:Day:Hourly, d2cb975e-019b-47da-baad-3492641b1a29, Fraction,1,0,1,1,1,1,1,1,0,0,0,0,1,0,1,0,0,0,0,0,0,0,0,0;

Schedule:Day:Hourly, f4e80c03-37c0-4f65-acb0-42164b2fc30b, Fraction,0,0,0,0,0,0,0,0,0,0,0,0,0,1,1,1,0,0,0,0,0,0,0,0;

Schedule:Day:Hourly, c70578a4-4172-476c-b90b-dbb9edc7dbdc, Fraction,0,0,0,0,1,0,0,0,0,0,0,1,1,1,1,1,1,0,0,0,0,0,0,0;

Schedule:Day:Hourly, a4d70ece-0924-45f6-b91d-eefd13a1c80d, Fraction,0,0,0,0,1,0,0,0,0,1,1,0,0,1,1,1,1,1,1,1,1,1,1,1;

Schedule:Day:Hourly, f782a7c3-4e24-47b9-8f29-5344f282bd47, Fraction,1,1,1,1,1,1,1,1,1,0,0,1,0,1,1,1,1,1,1,0,0,0,0,1;

Schedule:Day:Hourly, 4aae5b26-c82e-4dd8-afd6-79a1854a4c24, Fraction,1,1,1,1,1,1,1,1,0,0,0,0,0,0,1,1,1,0,0,0,0,0,0,0;

Schedule:Day:Hourly, 2845129c-7200-44b2-9073-178af05f6f7c, Fraction,0,0,1,0,0,0,0,1,0,0,0,0,0,1,1,1,1,0,0,0,0,0,1,0;

Schedule:Day:Hourly, 11dd7ce0-b4ae-4092-b44f-28a39006776f, Fraction,0,0,1,1,1,1,1,1,0,0,0,1,1,1,1,1,1,1,0,0,0,0,0,0;

Schedule:Day:Hourly, 59cdf5f3-626f-4c03-8f86-27c54c15e6bc, Fraction,0,0,1,1,1,1,1,1,0,0,1,1,1,1,1,1,1,1,1,0,0,0,0,0;

Schedule:Day:Hourly, f7b1d11e-415e-40ca-a212-de9acd9689d6, Fraction,0,0,1,1,1,1,1,1,0,1,1,1,1,1,1,1,1,1,0,0,0,0,0,0;

Schedule:Day:Hourly, 3dd9e6cd-de7c-4632-8e09-4da419557454, Fraction,0,0,1,1,1,1,1,1,0,0,1,1,1,1,1,1,1,1,0,0,0,0,0,0;

Schedule:Day:Hourly, 6cf8b87a-2efc-4c8b-846c-dbd84e0dfbf2, Fraction,0,0,1,1,1,1,1,1,0,1,0,1,1,1,1,1,1,1,0,0,0,0,0,0;

Schedule:Day:Hourly, 64cbd1fc-1db1-4998-8b02-a684e0690a59, Fraction,0,0,0,0,0,0,0,0,0,0,0,1,1,1,1,1,1,1,0,0,0,0,0,0;

Schedule:Day:Hourly, 973136e5-7eaf-48f7-b915-6c9a37701442, Fraction,0,0,0,0,0,0,0,0,0,1,1,1,1,1,1,1,1,0,0,0,0,0,0,0;

Schedule:Day:Hourly, e4a2ab30-1faa-4ef8-825b-335844a9c8b1, Fraction,0,1,1,1,1,1,1,1,1,1,1,1,0,0,0,1,1,0,0,0,0,0,0,0;

Schedule:Day:Hourly, 382cd65b-8ca2-4f2f-ae42-58c248ed6a25, Fraction,0,1,0,1,1,1,1,1,1,0,0,0,1,1,1,1,1,0,0,0,0,0,0,1;

Schedule:Day:Hourly, 4f1fe2c2-a220-4c87-91ab-9887e1e74f2c, Fraction,0,0,0,1,1,1,0,1,0,0,0,1,0,0,0,0,0,0,0,0,0,0,0,0;

Schedule:Day:Hourly, 404c002d-f548-4d23-86b3-a2114c99788d, Fraction,1,1,1,1,1,1,1,1,0,0,0,1,1,0,0,0,0,0,0,0,0,0,0,0;

Schedule:Day:Hourly, 2b6407cb-7b23-4944-b2f8-6b6add0085de, Fraction,0,0,0,0,0,0,1,1,0,0,0,0,1,1,1,0,0,0,0,0,0,0,0,0;

Schedule:Day:Hourly, 7bdb7382-c11b-47d1-a991-071ec3c919f0, Fraction,0,0,1,1,1,1,1,1,0,0,0,0,1,1,1,1,0,0,0,0,0,0,0,0;

Schedule:Day:Hourly, 109da854-8c3a-4e1c-8ab1-9de36e825529, Fraction,0,0,0,1,1,1,0,0,0,0,0,1,1,1,1,1,1,1,0,0,0,0,0,0;

Schedule:Day:Hourly, 46637283-3775-4203-899c-fd808efceca8, Fraction,0,0,0,1,1,1,0,0,0,0,1,1,1,1,1,1,1,1,1,0,0,0,0,0;

Schedule:Day:Hourly, 8c4d05c7-5cf0-4f0c-81c6-a955a40e5b32, Fraction,0,0,0,0,0,1,1,0,0,0,0,0,0,0,0,0,0,0,0,0,0,0,0,0;

Schedule:Day:Hourly, dbd2f23c-5e40-44eb-aa9c-d96a30dcd641, Fraction,0,0,0,0,0,0,0,0,0,0,0,0,1,0,1,1,1,1,0,0,0,0,0,0;

Schedule:Day:Hourly, b4717505-3080-4605-921e-3500b5537a68, Fraction,0,0,0,0,0,1,1,1,0,0,0,1,1,1,1,1,0,0,0,0,0,0,0,0;

Schedule:Day:Hourly, 26ddad88-262f-4052-b9cd-acf6b78effdf, Fraction,0,0,0,0,0,0,0,0,0,1,0,1,1,1,0,1,0,0,0,0,0,0,0,0;

Schedule:Day:Hourly, cd6e4dc1-4d21-4f61-a705-2eb9fba18fde, Fraction,0,0,0,0,1,0,1,0,0,0,1,1,1,0,1,1,1,0,0,0,1,1,1,1;

Schedule:Day:Hourly, 125c1e64-bc49-4757-8d04-a9078fa8e63b, Fraction,1,1,0,0,1,1,1,1,0,0,0,0,0,0,0,0,0,0,0,0,0,0,0,0;

Schedule:Day:Hourly, 0a2793f6-6b94-45ca-8b08-dc81659b7e8e, Fraction,0,0,0,0,0,1,0,1,0,0,0,1,1,1,1,1,0,0,0,1,1,1,1,1;

Schedule:Day:Hourly, a433db04-20cc-4a49-86f1-28c7bb3e9b04, Fraction,1,1,1,0,0,1,1,1,0,0,0,0,0,0,0,0,0,0,0,0,0,0,0,0;

Schedule:Day:Hourly, c630dff6-8833-44c4-9bfd-c1adf9463294, Fraction,0,0,0,0,1,0,1,1,1,0,0,0,1,0,0,0,0,0,0,0,0,0,0,0;

Schedule:Day:Hourly, 9304811f-a323-4f46-bbf5-8ed91a1e0ed5, Fraction,0,0,0,1,0,0,0,0,0,0,0,1,1,0,1,1,0,1,0,0,0,0,0,0;

Schedule:Day:Hourly, 26efab8f-71d1-49ac-8e6d-80e545446edc, Fraction,0,0,0,0,0,0,0,0,0,0,0,1,1,0,0,0,0,0,0,0,0,0,0,1;

Schedule:Day:Hourly, 2763e292-c780-4388-9eb1-5602e8280f79, Fraction,1,0,1,1,1,1,1,1,0,0,0,1,1,1,1,1,0,0,0,0,0,0,0,0;

Schedule:Day:Hourly, 04d9b4cc-3361-45ed-a605-d6ad5f25c658, Fraction,0,1,1,1,1,1,1,1,0,0,1,0,0,0,1,0,0,0,0,0,1,1,1,1;

Schedule:Day:Hourly, 96573092-6b43-42e0-a5c7-47cef951f330, Fraction,1,1,1,0,1,0,0,0,0,0,0,0,1,1,1,1,0,1,0,0,0,0,0,0;

Schedule:Day:Hourly, 838c61b4-e72b-4a26-b894-5ca9a22fec98, Fraction,0,0,0,0,0,0,1,1,0,0,0,1,1,0,0,0,0,0,0,0,0,0,0,0;

Schedule:Day:Hourly, f44c7d43-eb63-4cbe-8a9a-e6e9b300dd86, Fraction,0,1,1,1,1,1,0,1,1,1,1,0,0,0,0,0,0,0,0,0,0,0,0,0;

Schedule:Day:Hourly, 4ffb8b96-8488-4462-97e4-fcb9d6916c09, Fraction,0,0,0,1,0,1,1,0,0,0,0,1,0,1,1,1,1,1,1,0,0,0,0,0;

Schedule:Day:Hourly, 3732aef1-e269-4c4b-9e84-9b4ce90f3599, Fraction,0,0,0,1,1,1,0,0,0,0,0,0,1,1,1,1,0,0,0,0,0,0,0,0;

Schedule:Day:Hourly, 131d9379-0c3a-4213-9615-08ed3ee987e3, Fraction,0,1,1,1,1,0,1,1,0,0,0,1,1,1,1,1,1,1,1,0,0,0,0,0;

Schedule:Day:Hourly, 64d2ef84-f735-40f5-848f-b84cf636545b, Fraction,0,0,0,0,0,0,0,0,0,0,1,1,1,1,1,1,1,1,1,0,0,0,0,0;

Schedule:Day:Hourly, 8bffd4ed-cacd-4c23-92e5-9d9dea66ee59, Fraction,0,0,1,1,1,0,0,1,0,0,1,1,1,1,1,1,1,1,1,1,0,0,0,0;

Schedule:Day:Hourly, 38b78c56-95b2-40a6-8eb6-abe085f8060e, Fraction,0,0,0,0,0,0,0,1,0,0,1,1,1,1,1,1,0,1,1,1,1,1,0,0;

Schedule:Day:Hourly, 41d94b3c-f69d-4b60-9381-8accf866c43d, Fraction,0,0,0,0,0,0,0,0,0,1,0,1,1,1,0,0,0,0,0,0,0,0,1,1;

Schedule:Day:Hourly, 31bed374-725e-4fb7-96bb-4f30082a6669, Fraction,1,1,1,1,1,1,1,1,1,0,1,0,0,1,0,0,0,0,0,1,0,0,0,1;

Schedule:Day:Hourly, eca01a4c-e19c-4b26-a5e4-bcd698a1f312, Fraction,1,1,1,1,1,1,1,1,0,0,0,1,1,1,0,0,1,1,0,0,0,0,0,1;

Schedule:Day:Hourly, 4d17fef4-ccfb-4f9b-86bf-6a31afba34bf, Fraction,0,0,0,0,0,0,0,0,0,0,1,0,1,1,1,0,0,0,0,0,0,0,0,0;

Schedule:Day:Hourly, 1ecb58a0-4cbf-4c1c-9654-0718d4808108, Fraction,0,1,1,1,1,1,1,1,1,0,1,1,1,1,1,0,0,0,0,1,0,1,1,1;

Schedule:Day:Hourly, 581f2440-89ba-449f-95ed-24e56b724746, Fraction,0,0,0,0,1,1,1,1,1,1,1,0,0,0,0,0,0,0,1,0,0,0,0,0;

Schedule:Day:Hourly, 4505f2e5-c974-4700-b0ed-2fbd1115c669, Fraction,0,1,0,0,1,0,0,1,0,0,1,1,1,0,0,1,0,0,0,0,0,0,0,0;

Schedule:Day:Hourly, f8703f59-7315-4c81-a6d3-daec133cf262, Fraction,0,0,0,0,1,1,1,1,0,0,1,1,0,0,0,0,0,0,0,0,0,0,0,0;

Schedule:Day:Hourly, 7c9d4112-4d7d-46a7-a392-567ee75c1faf, Fraction,0,0,0,0,0,1,0,0,0,1,0,1,1,1,1,1,0,0,0,0,0,0,0,1;

Schedule:Day:Hourly, 08cca002-0a92-48bb-98a0-a9bfe699148d, Fraction,1,1,1,1,1,1,1,1,0,1,1,1,1,1,1,1,0,0,0,0,0,0,0,0;

Schedule:Day:Hourly, ad69dad0-a228-4842-8893-8c3622a09e1a, Fraction,0,0,0,0,0,0,0,0,0,1,1,1,1,1,1,0,0,0,0,0,0,0,0,0;

Schedule:Day:Hourly, 56a7906b-8b57-4ed4-80dd-8e4b8924105c, Fraction,0,1,0,0,1,1,1,1,0,1,1,1,1,1,1,1,1,1,0,0,0,0,0,0;

Schedule:Day:Hourly, 35bfe634-abd5-4321-8240-e2e51131fc19, Fraction,0,0,1,1,1,1,1,1,0,0,0,0,0,1,0,1,1,0,0,0,0,0,0,0;

Schedule:Day:Hourly, 216fef4e-556d-4d45-9276-d794d4edb9d1, Fraction,0,0,1,1,1,1,1,1,1,1,0,0,0,0,0,0,0,0,0,0,1,0,0,0;

Schedule:Day:Hourly, 23d8341d-39d1-4cad-8210-b67dd821eae3, Fraction,1,1,1,1,1,0,0,0,0,0,0,1,1,1,1,1,1,0,0,0,0,0,0,0;

Schedule:Day:Hourly, 21af95f6-3f22-4c2b-8c65-aa3243ec1cda, Fraction,0,1,1,1,1,1,1,0,0,0,0,0,0,0,0,0,1,1,1,1,1,1,1,1;

Schedule:Day:Hourly, 27ece69b-9f15-4565-aafb-14e8b30c6f24, Fraction,0,1,0,0,1,0,0,0,0,0,0,0,1,0,0,0,0,0,0,0,0,0,0,0;

Schedule:Day:Hourly, 38bb5bee-d901-4922-b601-fa4e0b83000a, Fraction,0,1,1,1,1,1,1,1,1,1,0,0,0,0,0,1,1,0,0,0,0,0,0,0;

Schedule:Day:Hourly, f10935d8-bf25-46bb-853f-70b318c561c0, Fraction,1,1,1,0,1,1,1,1,0,0,1,1,1,1,1,1,1,1,0,0,0,0,0,0;

Schedule:Day:Hourly, c55de4f9-5b5b-43f8-b345-433e33f9a284, Fraction,0,1,0,0,0,0,0,0,0,0,1,0,0,0,1,1,1,1,1,0,0,0,0,1;

Schedule:Day:Hourly, 16e3741b-a500-461d-a6ed-fc0679f2b8ed, Fraction,1,1,1,1,1,0,1,1,1,0,0,0,0,1,1,0,0,0,0,0,0,0,0,1;

Schedule:Day:Hourly, 4eb27dbc-bfc3-4997-bc50-2bbe2ae7be88, Fraction,1,1,1,1,1,1,0,0,0,0,0,1,1,1,1,1,1,0,0,0,0,0,0,0;

Schedule:Day:Hourly, 5ac09ab2-beb6-4f57-9377-471444e6df28, Fraction,0,1,1,1,1,1,1,0,0,0,0,1,1,1,1,0,0,0,0,0,0,0,0,0;

Schedule:Day:Hourly, d9334854-d197-4658-af41-34ca6e427bc2, Fraction,0,0,0,0,0,0,0,0,0,1,1,1,1,1,1,1,1,1,0,0,0,0,0,0;

Schedule:Day:Hourly, e0120a70-5495-43e2-bb04-d85c7344809b, Fraction,0,0,1,1,1,1,1,0,0,0,1,1,1,1,0,0,0,0,0,0,0,0,0,0;

Schedule:Day:Hourly, a1530b9f-aa9a-44a0-9089-bc16a00b669e, Fraction,1,1,1,1,1,1,1,1,1,0,0,0,0,0,0,0,0,0,1,1,1,1,1,1;

Schedule:Day:Hourly, b80e21ad-0aa0-476b-a39c-7dbb701e5039, Fraction,1,1,1,1,1,1,1,0,0,1,1,1,0,0,0,0,0,0,0,0,0,0,0,0;

Schedule:Day:Hourly, c9460a58-7f65-499f-93ef-bf7f84d4d2b7, Fraction,1,1,1,1,1,1,1,1,0,1,1,0,0,0,1,1,0,0,0,0,0,0,0,0;

Schedule:Day:Hourly, 3c9a2343-97bf-4438-bbac-0b0613b5cb3d, Fraction,0,0,0,1,1,1,0,0,0,1,1,1,1,1,1,1,1,1,0,0,0,0,0,0;

Schedule:Day:Hourly, ba165f2a-0a90-41e4-92a6-d02a0a46b943, Fraction,0,0,0,0,0,0,0,1,1,1,1,0,0,0,0,0,0,0,0,0,0,0,0,1;

Schedule:Day:Hourly, 26ee9eff-1623-47c5-839f-52054b0ed0af, Fraction,1,1,1,1,1,1,1,1,0,0,0,1,1,1,1,0,0,0,1,1,1,1,1,1;

Schedule:Day:Hourly, 735f1e76-030f-4e2a-a5f5-b0a8f4907394, Fraction,1,1,1,1,1,1,1,1,1,1,1,1,1,1,1,0,0,0,0,1,1,1,0,1;

Schedule:Day:Hourly, 128f470d-150a-4e7b-ae07-43f4f1eff838, Fraction,1,1,1,1,1,1,1,1,0,0,1,1,0,1,0,0,0,0,0,0,0,0,0,1;

Schedule:Day:Hourly, 791541ee-b5a6-415e-91e9-6991e1c80c7a, Fraction,1,1,1,1,1,1,1,0,0,0,1,0,0,0,0,0,0,0,0,1,1,1,1,1;

Schedule:Day:Hourly, e5c722e7-6da8-4bbe-804a-78448155b7ed, Fraction,1,1,1,1,1,0,0,0,0,0,1,1,1,1,1,1,1,0,0,0,0,0,0,0;

Schedule:Day:Hourly, 6feb05bb-3b47-4e1a-a18e-e1cbfe3bb0fd, Fraction,1,1,1,1,1,1,1,1,1,1,0,0,0,0,0,0,1,0,0,0,0,0,0,0;

Schedule:Day:Hourly, 64400c93-05fa-4272-b678-8e14fcb98c33, Fraction,1,1,1,1,1,1,1,1,1,1,1,1,0,0,0,0,0,0,0,0,0,1,1,1;

Schedule:Day:Hourly, ed0dcf7f-ad70-4942-9c09-dba42210d571, Fraction,1,1,1,1,1,1,1,0,0,0,1,1,1,1,1,1,1,0,0,0,0,1,1,1;

Schedule:Day:Hourly, 8b65e0a5-b0e8-41a0-8c55-46b98c72f420, Fraction,1,1,1,1,1,1,1,1,0,0,1,1,1,1,0,1,1,1,1,1,1,1,1,1;

Schedule:Day:Hourly, 747f836d-5fa0-4766-9935-bec713b8a2cf, Fraction,1,1,1,1,1,1,1,1,1,0,0,0,0,1,0,0,0,0,0,0,0,0,0,0;

Schedule:Day:Hourly, 35819b10-d477-4c47-b0b5-ca36da1a74a7, Fraction,1,1,1,1,1,1,1,1,0,1,1,1,1,1,1,1,1,0,1,1,1,1,1,1;

Schedule:Day:Hourly, a60063e1-1796-485a-95ae-76ba7a375841, Fraction,1,1,1,1,1,1,1,1,0,0,1,1,1,1,1,1,0,0,0,0,0,0,1,1;

Schedule:Day:Hourly, 6365fd77-f3b6-4dce-b616-1bd741a7593f, Fraction,1,1,1,1,1,1,1,0,0,0,1,1,1,0,0,0,0,1,1,1,1,1,1,1;

Schedule:Day:Hourly, b9fda6bb-e24d-488c-892a-f10f506fc230, Fraction,1,1,1,1,1,1,1,1,0,0,1,1,1,1,1,1,1,0,0,0,0,0,0,1;

Schedule:Day:Hourly, 82558eb8-a907-4d96-bfc2-141b1edff7b8, Fraction,1,1,1,1,0,1,1,0,0,0,0,1,1,1,1,1,0,0,0,0,0,0,0,0;

Schedule:Day:Hourly, 199bd7b1-b331-4ea2-9c2b-c964a8bbb985, Fraction,0,0,0,0,0,1,1,1,0,0,0,0,0,1,0,0,0,0,0,0,0,0,0,0;

Schedule:Day:Hourly, f92b5ace-c104-4eec-8cf6-22f32ade0833, Fraction,1,1,1,1,1,1,1,1,0,0,1,1,1,1,0,0,0,0,0,0,0,0,0,0;

Schedule:Day:Hourly, eaceb619-25f8-4c61-944b-39e37ccd661c, Fraction,0,0,0,0,0,0,0,1,0,0,0,0,0,1,0,0,0,0,0,0,0,0,1,1;

Schedule:Day:Hourly, defd7e23-ccfe-4ff6-ae0f-768495bc4423, Fraction,1,1,1,1,1,1,1,1,0,0,0,1,0,0,0,0,0,0,0,0,0,1,1,1;

Schedule:Day:Hourly, 51a67dad-ee02-442a-8bdc-920b9719b10e, Fraction,1,1,1,1,1,1,1,1,0,0,0,0,1,1,1,0,0,0,0,0,0,0,1,1;

Schedule:Day:Hourly, 4b54abea-f727-42e1-922a-d229dd492388, Fraction,1,1,1,1,1,1,1,1,1,0,0,0,0,0,0,0,1,1,1,1,1,1,1,1;

Schedule:Day:Hourly, 5055d847-8683-4ed0-87d4-19b96ef13de3, Fraction,1,1,1,1,1,1,1,1,1,0,0,0,1,1,0,0,0,0,0,1,1,1,1,1;

Schedule:Day:Hourly, 04c42399-f9f3-47a2-a6ce-dd65ae4d9d1c, Fraction,1,1,1,1,1,1,1,1,0,1,0,0,1,1,1,1,1,1,1,1,1,1,1,1;

Schedule:Day:Hourly, a42c647a-e62e-409e-87df-b8050869f66e, Fraction,1,1,1,1,1,1,1,1,0,0,1,0,0,0,0,0,0,0,1,1,1,1,1,1;

Schedule:Day:Hourly, c5ca1a3e-0cff-478c-a2a6-9b24cfcff8fa, Fraction,1,1,1,1,1,1,1,1,1,0,0,0,0,1,0,0,0,0,1,1,1,1,1,1;

Schedule:Day:Hourly, 0ca41cd6-8cb8-45e8-9b24-2fefdcedf8ac, Fraction,1,1,1,1,1,1,1,1,1,0,0,0,1,0,0,0,0,0,0,0,0,0,0,1;

Schedule:Day:Hourly, 12dceb46-d6db-4599-9b63-a6f514dc4f92, Fraction,1,1,1,1,1,1,1,1,1,0,0,0,1,1,1,1,0,1,1,1,1,1,1,1;

Schedule:Day:Hourly, 878d5cbf-7b98-4252-a014-d4995158d2dc, Fraction,1,1,1,1,1,1,1,1,0,0,1,1,0,0,0,0,1,1,1,1,1,1,1,1;

Schedule:Day:Hourly, 7e2dd2c3-aa8a-4bdb-822a-83a93267469c, Fraction,1,1,1,1,1,1,1,1,0,0,0,0,1,1,1,1,1,1,1,1,1,1,1,1;

Schedule:Day:Hourly, 005e9998-0b35-42f6-a249-7a2c13225b52, Fraction,1,1,1,1,1,1,1,1,0,0,0,0,0,0,0,1,1,1,1,1,1,1,1,1;

Schedule:Day:Hourly, 00145504-8680-4e78-97fe-220fc942b377, Fraction,1,1,1,1,1,1,1,1,1,1,1,1,1,1,1,0,0,0,1,1,1,1,1,1;

Schedule:Day:Hourly, bb9c41be-61c1-4ebd-bf29-762ad8a061f1, Fraction,1,1,1,1,1,1,1,1,0,1,1,1,1,1,1,1,1,1,1,1,1,1,1,1;

Schedule:Day:Hourly, 51d52436-b71f-4e46-99ec-c6f1f2ebe9eb, Fraction,1,1,1,1,1,1,1,1,1,0,0,0,0,0,0,0,1,1,0,0,0,0,1,1;

Schedule:Day:Hourly, 57295fca-58e6-4d14-8e2b-0a7e50582ef8, Fraction,1,1,1,1,1,1,1,1,1,0,0,0,0,0,0,0,0,0,0,1,1,1,1,1;

Schedule:Day:Hourly, 0416ab25-20df-4614-b3f5-29b9eaf4fa9c, Fraction,1,1,1,1,1,1,1,0,0,0,1,1,1,1,1,1,1,0,0,0,0,0,0,0;

Schedule:Day:Hourly, 48f227b6-837a-4e3a-a835-452beb52d8a7, Fraction,0,1,1,1,1,1,1,1,0,0,1,0,1,1,1,0,0,0,0,0,0,0,0,1;

Schedule:Day:Hourly, 8398727b-d2d4-4ee7-96ab-770dfcc77527, Fraction,1,1,1,1,1,1,1,1,0,0,0,1,1,1,0,0,0,1,1,1,1,1,1,1;

Schedule:Day:Hourly, 47a75b71-2e69-4fe2-a5c7-3ae50deb6071, Fraction,1,1,1,1,1,1,1,1,1,0,0,0,0,0,0,0,0,0,0,0,0,1,1,1;

Schedule:Day:Hourly, 2fa0508f-e059-4897-9b0f-80327699850d, Fraction,1,1,1,1,1,1,1,1,0,0,1,1,1,1,1,1,1,1,0,0,0,0,1,1;

Schedule:Day:Hourly, fd7cf928-6442-4257-bec3-316041faf432, Fraction,1,1,1,1,1,1,1,1,0,0,1,0,0,0,1,1,1,1,1,1,1,1,1,1;

Schedule:Day:Hourly, 75772aa4-2169-4592-a0ce-d46cc9314986, Fraction,1,1,1,1,1,1,1,1,0,0,0,0,0,0,0,0,0,1,1,1,1,1,1,1;

Schedule:Day:Hourly, 8cb39c06-89f5-4c77-a42c-1a61433c71ff, Fraction,1,1,1,1,1,1,1,1,0,0,0,1,1,0,0,0,0,0,0,0,1,1,1,1;

Schedule:Day:Hourly, 663d472e-7db6-4866-81e9-152baca2bb5c, Fraction,1,1,1,1,1,1,1,1,0,0,1,1,1,1,0,0,1,0,0,0,0,1,1,1;

Schedule:Day:Hourly, 38dbcb10-f1b6-49db-bbaf-37d28275cd1c, Fraction,1,1,1,1,1,1,1,1,1,0,1,1,1,1,1,1,1,0,0,0,0,0,1,1;

Schedule:Day:Hourly, fdf7142b-0f27-49ab-9552-cca525c0e781, Fraction,1,1,1,1,1,1,1,1,0,0,1,1,1,0,1,1,0,0,1,1,1,1,1,1;

Schedule:Day:Hourly, 630cffc9-27a1-4e7d-83ad-e732c21bbedd, Fraction,1,1,1,1,1,1,1,1,1,0,0,0,0,1,0,0,0,0,0,0,0,1,1,1;

Schedule:Day:Hourly, f487e253-3329-4cee-a2fa-59b6e56d3a6b, Fraction,1,1,1,1,1,1,1,1,0,0,0,1,1,1,1,0,0,0,0,0,0,0,0,0;

Schedule:Day:Hourly, b786cea4-8290-486e-a954-83d6796b3456, Fraction,0,1,1,1,1,1,1,0,0,0,1,1,1,1,0,0,0,0,0,0,1,1,1,0;

Schedule:Day:Hourly, c1f9b941-a352-4496-bdbd-2463ed4b9ab1, Fraction,0,0,0,0,0,0,0,0,0,0,0,1,1,0,0,1,0,0,0,0,0,0,0,0;

Schedule:Day:Hourly, 14a5ef99-5643-4d80-b06d-e77d933fda5a, Fraction,0,0,0,0,0,0,0,0,0,0,0,1,1,1,1,0,0,0,0,0,0,0,0,0;

Schedule:Day:Hourly, 50720eca-4dd0-476f-8dff-f0b3ebfa9f6c, Fraction,0,0,0,0,0,0,0,0,0,0,0,1,0,0,0,0,0,0,0,0,0,0,0,0;

Schedule:Day:Hourly, da0e3314-0b5b-406d-a1a1-5f33ee1c906a, Fraction,0,0,0,0,1,0,0,0,0,0,0,1,1,1,0,0,0,0,0,0,0,0,0,0;

Schedule:Day:Hourly, 89d1df51-448f-4462-a08b-a69803267a3f, Fraction,0,0,0,0,1,0,0,0,0,0,0,1,1,1,0,1,1,1,0,0,1,1,1,1;

Schedule:Day:Hourly, 9537ff6e-2588-4ef4-bda1-aa409aab7af1, Fraction,1,1,1,1,1,1,1,1,1,1,1,1,1,1,1,1,1,1,1,1,1,1,1,1;

Schedule:Day:Hourly, f997d1c3-8c63-48e1-9552-ac3661c0fc7b, Fraction,1,1,1,0,1,1,1,1,0,1,1,1,1,1,1,1,1,1,1,1,1,1,1,1;

Schedule:Day:Hourly, 39d59c97-67c6-4e2d-89ef-b1364d21566c, Fraction,1,1,1,1,1,1,1,1,1,0,0,0,1,1,0,0,1,1,1,1,1,1,1,1;

Schedule:Day:Hourly, 667c9cc7-522e-4738-a714-b7071c24d97f, Fraction,1,1,1,1,1,1,1,1,1,0,0,1,1,0,1,0,1,1,0,1,0,0,1,0;

Schedule:Day:Hourly, 3d4f4472-d5aa-4ad2-8443-198db121f422, Fraction,0,1,1,1,1,1,1,1,1,1,1,1,1,0,0,0,0,0,0,0,1,1,1,1;

Schedule:Day:Hourly, 180a5d12-98d8-4e0e-8838-d87546300336, Fraction,1,1,1,1,1,1,1,1,1,1,1,1,0,0,0,0,0,0,0,1,1,1,1,1;

Schedule:Day:Hourly, 3dd4e555-544e-4cd9-a547-b05d940d0038, Fraction,1,1,1,1,1,1,1,1,1,1,1,1,1,1,0,1,1,1,0,1,1,1,1,1;

Schedule:Day:Hourly, 563d61ce-fd75-496c-a24e-29445ff1effa, Fraction,1,1,1,1,1,1,1,1,1,0,0,0,0,0,0,0,0,0,0,0,1,1,1,1;

Schedule:Day:Hourly, 90f94ff6-ae47-4445-b2b6-431759312e56, Fraction,1,1,1,1,1,1,1,1,0,0,0,0,1,1,1,1,0,0,0,0,0,0,1,0;

Schedule:Day:Hourly, b1dc7f95-afd8-4535-baa3-e8295b537215, Fraction,1,1,1,1,1,1,1,1,1,1,0,1,1,1,1,0,0,0,0,0,1,1,1,0;

Schedule:Day:Hourly, c309f14e-1ec3-436f-900e-69d25bdd1ce4, Fraction,1,1,1,1,1,1,1,1,1,0,0,0,0,1,1,1,1,1,1,1,1,1,1,1;

Schedule:Day:Hourly, f97f1995-aca2-4397-8431-f280c087ddb5, Fraction,1,1,1,1,1,1,1,1,1,1,0,0,0,0,0,0,0,1,0,1,1,1,1,1;

Schedule:Day:Hourly, 1cdd53bd-e8d3-461e-bf4f-7a00374b1e25, Fraction,1,1,1,1,1,1,1,1,0,0,0,0,0,0,0,0,0,0,0,1,1,1,1,1;

Schedule:Day:Hourly, 24c2b1cc-3ca4-4dbe-b3a6-4996508fb32a, Fraction,1,1,1,1,1,1,1,1,0,0,0,0,1,0,1,0,1,1,1,1,0,1,1,1;

Schedule:Day:Hourly, f8345422-929e-4881-9798-eaf8d1b45efc, Fraction,1,1,1,1,1,1,1,1,0,0,0,0,1,0,0,0,0,0,0,0,0,1,1,1;

Schedule:Day:Hourly, e1745905-e496-4db8-a954-e6b1f3073ce5, Fraction,1,1,1,1,1,1,1,1,0,0,0,1,0,1,1,0,0,0,0,0,0,0,0,1;

Schedule:Day:Hourly, 5bc440fc-95c4-4d35-92ac-8eced93f7308, Fraction,1,1,0,0,1,1,0,1,0,0,0,0,1,0,0,0,0,0,0,0,0,0,0,0;

Schedule:Day:Hourly, 5feac57b-c063-4623-b02a-96e1fc21173a, Fraction,0,0,1,0,0,0,1,0,0,0,0,0,0,1,1,0,0,0,0,0,0,0,0,0;

Schedule:Day:Hourly, cde5ef60-73dc-492f-9a8e-d230d940041c, Fraction,0,0,0,0,0,0,0,0,0,0,0,1,1,1,1,1,0,0,0,0,0,0,1,0;

Schedule:Day:Hourly, dfd9d9d8-d60e-4dc5-b3ef-316737d7fdbc, Fraction,1,1,0,0,1,0,0,1,0,0,0,1,1,1,1,0,0,0,0,0,0,0,0,0;

Schedule:Day:Hourly, 6f84943a-9580-48f6-abb5-16b5c14ebb8c, Fraction,0,1,0,1,1,1,1,1,0,0,0,1,1,1,1,1,0,0,0,0,0,0,0,0;

Schedule:Day:Hourly, 96cc1cfd-33e8-48a0-ac5d-2f14c5bfd822, Fraction,0,1,1,1,1,1,1,1,0,0,0,0,1,1,1,1,0,0,0,0,0,0,0,0;

Schedule:Day:Hourly, a72a09e1-d220-4f93-bfda-8aa8ce1d154c, Fraction,0,0,0,1,1,0,0,1,0,0,0,1,1,1,1,1,0,0,0,0,0,0,0,0;

Schedule:Day:Hourly, e05a56ec-6aa4-4702-90d9-f841ebf66855, Fraction,0,1,1,1,1,0,0,1,0,0,0,0,0,0,0,0,0,0,0,0,0,0,1,1;

Schedule:Day:Hourly, eff3c904-2ccf-4a9a-ab07-97f850aba31b, Fraction,0,0,0,0,0,0,0,0,1,1,1,1,1,0,1,1,1,1,1,1,1,1,1,1;

Schedule:Day:Hourly, bbc0bc8d-893e-4d03-8491-546f19653f86, Fraction,0,0,0,0,0,0,0,0,1,1,1,1,1,1,1,1,1,1,1,1,1,1,1,1;

Schedule:Day:Hourly, 11436ce9-89de-41bd-b25a-be22412bf053, Fraction,0,0,0,0,0,0,0,0,1,1,1,0,0,0,0,0,1,1,1,1,1,1,1,0;

Schedule:Day:Hourly, 5a78c427-83be-4c59-b8a9-d80ae3f9b6e4, Fraction,0,0,0,0,0,0,0,0,1,1,1,1,1,1,1,1,1,1,1,1,1,1,1,0;

Schedule:Day:Hourly, 8d19ceb3-6b38-4aa0-8136-29ae1fab8b94, Fraction,0,0,0,0,0,0,0,0,1,1,1,1,0,0,0,1,1,1,1,1,1,1,1,1;

Schedule:Day:Hourly, 602188f5-4374-4056-af5e-922559f9e307, Fraction,0,0,0,0,0,0,0,0,1,1,1,1,1,1,1,1,1,1,1,1,1,1,0,0;

Schedule:Day:Hourly, 70f10cb6-9a16-42ed-835d-2fab6c8acb6f, Fraction,0,0,0,0,0,0,0,1,1,1,1,1,0,0,0,0,1,1,1,1,1,1,1,0;

Schedule:Day:Hourly, 87064229-2f4b-45b9-bb6c-0c282fc1518e, Fraction,0,0,0,0,0,0,0,0,1,1,1,1,0,0,0,0,0,1,1,1,1,1,1,1;

Schedule:Day:Hourly, fc16d2a8-5d42-4464-b557-d0ee5435ec5e, Fraction,0,0,0,0,0,0,0,0,1,1,1,1,0,0,0,0,0,1,1,1,1,1,1,0;

Schedule:Day:Hourly, 48bd3c55-f78e-4c6d-9365-30fafaccd7fb, Fraction,0,0,0,0,0,1,1,1,1,1,0,0,0,0,1,1,1,1,1,1,1,1,0,0;

Schedule:Day:Hourly, e560dd57-945f-4b36-bab8-d4f70c74ef86, Fraction,0,0,0,0,0,1,1,1,1,1,1,1,1,1,1,0,0,0,0,0,0,0,0,0;

Schedule:Day:Hourly, 33522abf-6d5b-4f70-a4d5-2dcc7554ef71, Fraction,0,0,0,0,0,0,0,1,1,1,1,1,1,1,1,1,1,1,1,1,1,1,0,0;

Schedule:Day:Hourly, a867c2ed-4861-4259-b14f-ab2409dbcf09, Fraction,0,0,0,0,0,0,0,1,1,1,1,1,1,1,1,1,1,1,1,1,1,1,1,0;

Schedule:Day:Hourly, 7a80d66d-eb5f-4a4c-bd0c-c0a2cd2b9419, Fraction,0,0,0,0,0,0,0,0,0,0,0,1,1,1,1,1,1,1,1,1,0,0,0,0;

Schedule:Day:Hourly, ce266d21-c274-440a-a31b-7bbc792a86b9, Fraction,0,0,0,0,0,0,1,1,1,1,1,1,1,1,1,1,1,1,1,1,1,0,0,0;

Schedule:Day:Hourly, dd5c88b8-9880-404c-b964-3714a101f4cc, Fraction,0,0,0,0,1,1,1,1,1,1,1,1,1,1,1,1,1,1,1,1,1,0,0,0;

Schedule:Day:Hourly, 15d39ef0-230d-4d8a-9b53-acc68ca7dc45, Fraction,0,0,0,0,0,0,0,0,0,0,0,0,0,0,1,1,1,1,1,1,0,0,0,0;

Schedule:Day:Hourly, dbee7365-7460-4704-8b69-d53d2ae39e4d, Fraction,0,0,0,0,0,0,1,1,1,1,1,1,1,1,1,1,1,1,1,1,1,1,0,0;

Schedule:Day:Hourly, e1dc3508-2bd0-4045-b292-35436664c7c2, Fraction,1,0,0,0,0,0,0,0,1,1,1,1,1,0,1,1,1,1,0,0,0,0,0,0;

Schedule:Day:Hourly, 5712dd59-3b3d-4bbc-a01f-ceb5e0a7f8e6, Fraction,0,0,0,0,0,0,1,1,1,1,1,1,0,0,1,1,0,0,0,0,0,0,0,0;

Schedule:Day:Hourly, ec007f7b-19eb-4b0c-a987-f5b5e3d6fb29, Fraction,0,0,0,1,1,1,1,1,1,1,1,1,1,1,1,1,1,1,1,1,1,1,1,1;

Schedule:Day:Hourly, 86f91a63-8e8a-4066-b134-4b72acf1abb4, Fraction,0,0,0,0,0,0,0,0,1,1,1,1,0,0,0,0,1,1,1,1,1,1,1,1;

Schedule:Day:Hourly, dd9bd541-1c2e-4fc6-a9e0-d776f7edcb14, Fraction,1,1,1,1,1,1,1,1,0,0,0,0,0,0,0,0,1,1,1,1,1,1,1,1;

Schedule:Day:Hourly, 4ef6fee2-8c3a-465b-95cd-d604b66b6496, Fraction,1,1,1,0,0,0,0,0,1,1,1,1,1,1,1,1,1,1,1,1,1,1,1,1;

Schedule:Day:Hourly, 6e5feabd-65f9-472b-be8f-971c24bb988c, Fraction,1,1,1,0,0,0,0,0,1,1,1,1,1,0,0,0,1,1,1,1,1,1,1,1;

Schedule:Day:Hourly, 3e14a973-859c-4137-bad9-21c250eb57df, Fraction,1,0,0,0,0,0,0,0,1,1,1,1,1,0,0,1,1,1,1,1,1,1,1,1;

Schedule:Day:Hourly, 5ecce77c-f299-48ab-b7e8-21d8f1964ba3, Fraction,1,1,1,1,0,0,0,0,1,1,1,1,1,1,1,1,1,1,1,1,1,1,1,1;

Schedule:Day:Hourly, 99a6281f-8115-46b8-a7f3-0c64bbd6a882, Fraction,0,0,0,0,0,0,0,0,0,1,0,0,0,0,0,0,0,1,1,0,0,0,0,0;

Schedule:Day:Hourly, 1b2f58e8-5bac-46a7-a640-b02f15376dfd, Fraction,0,0,0,0,0,0,0,0,1,1,1,0,0,0,0,0,1,0,0,0,0,0,0,0;

Schedule:Day:Hourly, 93a6ec0c-b8ef-460b-8b73-0e3f113541b8, Fraction,1,0,0,0,0,0,0,0,1,1,1,1,0,0,0,1,1,1,1,1,1,1,1,1;

Schedule:Day:Hourly, 7dcde0b7-c253-41fd-a3fa-36e06be56d9f, Fraction,1,1,1,1,1,1,1,1,1,1,1,1,0,1,1,1,1,1,1,1,1,1,1,1;

Schedule:Day:Hourly, 684e7cbb-a94f-4970-a340-6cadfa7648fc, Fraction,1,0,0,0,0,0,0,0,1,1,1,1,1,1,1,1,1,1,1,1,1,1,1,1;

Schedule:Day:Hourly, f211f3d9-cb60-4278-81b4-ab14e7acde4c, Fraction,1,0,1,1,0,1,1,1,1,1,1,0,0,0,0,0,0,1,1,1,1,1,1,1;

Schedule:Day:Hourly, e34143cd-9572-4331-8de1-e26b5b88f337, Fraction,1,1,1,1,1,1,1,1,1,1,1,1,0,1,0,1,1,1,1,1,1,1,1,1;

Schedule:Day:Hourly, b9dc7084-f2e2-448f-9d1d-b03f15d1f119, Fraction,1,1,1,1,1,1,1,1,1,1,1,0,1,1,0,0,1,1,1,1,1,1,1,0;

Schedule:Day:Hourly, 8668a877-1a9a-4b5f-a7ad-0ab9ceddfc96, Fraction,1,1,1,0,0,0,0,0,1,1,1,0,0,0,0,1,1,1,1,1,1,0,0,1;

Schedule:Day:Hourly, fb54164d-c2cb-4bb6-8a12-42e5b763e555, Fraction,1,0,0,0,0,0,0,0,1,1,1,0,0,0,0,0,1,1,0,1,1,0,0,0;

Schedule:Day:Hourly, 810bbfe5-90bb-49d8-baed-b592d23cee27, Fraction,0,0,0,0,0,0,0,0,1,1,1,0,0,0,0,1,1,1,1,0,1,1,0,0;

Schedule:Day:Hourly, 8ce601c7-c132-4d5c-9c54-fc20d2eb26b5, Fraction,0,0,0,0,0,0,0,0,1,1,1,0,0,0,0,0,0,1,0,0,0,0,0,0;

Schedule:Day:Hourly, b4678f2a-9bbd-46f3-8fb5-149d5f850825, Fraction,0,0,1,1,0,0,1,1,1,1,1,0,1,1,0,0,1,1,1,1,1,1,1,1;

Schedule:Day:Hourly, 4390b738-8c3f-476e-b3b4-6383b51404f7, Fraction,1,0,0,1,0,0,1,1,1,1,1,0,0,0,0,0,0,1,1,1,1,1,1,1;

Schedule:Day:Hourly, 7ed7d1be-72b1-4d38-8ee5-39665d1264c4, Fraction,1,1,1,1,0,0,0,0,1,1,1,0,0,0,0,0,1,1,1,1,1,1,1,1;

Schedule:Day:Hourly, f31d89e2-f4da-48a2-8c16-15f457d17bba, Fraction,0,0,0,0,0,0,0,0,1,1,1,0,0,0,0,0,1,1,1,1,1,1,1,1;

Schedule:Day:Hourly, 1afe13ff-6d5f-4c42-b060-bd548c5a48c2, Fraction,1,1,0,0,0,0,0,1,1,1,1,0,0,0,0,0,0,1,1,1,1,1,1,1;

Schedule:Day:Hourly, 8f547f5f-4711-410e-9fba-6f871bfbefaa, Fraction,1,1,1,1,1,1,1,1,1,1,1,1,1,0,1,1,1,1,1,1,1,1,1,1;

Schedule:Day:Hourly, d0d58bff-54c1-4c8d-af74-7ff80ac5c5b0, Fraction,1,1,1,1,1,1,1,1,1,1,1,0,0,0,1,1,1,1,1,1,1,1,1,1;

Schedule:Day:Hourly, f8c351d4-3aab-4c7f-9b3e-c895bd5aa189, Fraction,1,1,1,1,1,1,1,1,1,1,1,1,0,0,0,0,1,1,1,1,1,1,1,1;

Schedule:Day:Hourly, 63fde2e6-b757-45b0-998c-53f0bb6113cc, Fraction,1,1,1,0,0,0,0,0,1,1,1,0,0,0,0,0,1,1,1,1,1,1,1,1;

Schedule:Day:Hourly, b99086fe-aeea-4c3d-8c8c-f8b8c1328ad7, Fraction,0,0,0,1,0,0,0,0,1,1,1,0,0,0,0,0,0,1,1,1,1,1,1,0;

Schedule:Day:Hourly, a95745bf-a8a5-470e-a37e-9ee054d5971e, Fraction,0,0,0,0,0,0,0,0,1,1,1,0,0,0,0,0,0,1,1,1,1,1,1,0;

Schedule:Day:Hourly, b8d253a5-0028-4b82-8eaf-c7efa23c45ec, Fraction,0,0,0,0,1,1,1,0,1,1,0,0,0,0,0,0,0,1,1,1,1,1,1,1;

Schedule:Day:Hourly, dc96ed80-c292-40f6-a6d6-95479a0b1cef, Fraction,0,0,0,0,1,1,1,1,1,1,1,0,0,0,0,0,0,1,1,1,1,1,1,1;

Schedule:Day:Hourly, 5a21a34f-6dab-4015-b274-97236da7a5c1, Fraction,1,1,1,1,1,1,1,1,1,1,1,0,0,0,0,0,1,1,1,1,1,0,0,0;

Schedule:Day:Hourly, 168f10a7-07d4-454f-8298-91428fdce683, Fraction,0,0,0,0,0,0,0,0,0,0,1,1,1,1,0,0,1,1,1,0,0,1,0,1;

Schedule:Day:Hourly, dcb67924-ac51-44de-b64d-e2b88428b58b, Fraction,1,0,0,0,0,0,0,0,0,0,0,0,1,0,1,0,0,0,0,0,0,0,0,0;

Schedule:Day:Hourly, 51fff589-1571-456f-b042-3a0048941ddc, Fraction,0,0,0,0,0,0,0,0,1,1,1,0,1,0,0,1,1,1,1,0,1,0,0,0;

Schedule:Day:Hourly, aafd9588-8a73-4686-a0b1-43f667d52a97, Fraction,0,0,0,0,0,0,0,0,1,1,1,0,0,0,0,0,0,0,1,1,1,1,1,1;

Schedule:Day:Hourly, 4ee866d5-fcd0-443c-b451-1fdf9b0ed513, Fraction,0,1,0,0,0,1,0,0,1,1,1,0,0,0,0,0,0,1,1,1,1,1,1,1;

Schedule:Day:Hourly, 538fc2d7-703e-422e-b435-23af6d0e72ca, Fraction,1,1,1,1,1,0,0,1,1,1,1,1,0,0,0,0,1,1,1,1,0,0,0,1;

Schedule:Day:Hourly, d0bb4643-1f26-4cc4-898d-0cfb3050a2f4, Fraction,1,0,1,0,0,0,0,0,1,1,1,0,0,0,0,0,0,1,1,1,1,1,1,1;

Schedule:Day:Hourly, 2b99ac63-c771-445f-9039-40a5ccc19763, Fraction,1,0,0,0,0,0,1,0,1,1,1,0,0,0,0,0,0,0,1,1,1,1,1,1;

Schedule:Day:Hourly, faa53680-d87e-41ab-82e8-6b384e457c05, Fraction,1,1,1,0,0,0,0,0,1,1,1,0,0,0,0,0,0,0,1,1,1,1,1,1;

Schedule:Day:Hourly, fd810649-ffd3-4bb2-9420-d670a92339b5, Fraction,1,1,1,1,0,0,0,0,1,1,1,0,0,0,0,0,0,0,1,1,1,1,1,1;

Schedule:Day:Hourly, f9936bf6-b994-414e-b5a0-57dca7101092, Fraction,1,1,0,0,0,0,0,0,1,1,1,0,0,0,0,0,1,0,0,0,1,0,0,0;

Schedule:Day:Hourly, b23dc280-f342-4c3a-8335-238ef8f51ae3, Fraction,1,1,1,1,0,0,0,0,1,1,0,0,0,0,0,0,0,1,1,1,1,1,1,1;

Schedule:Day:Hourly, e6064396-12d0-48d8-9d6f-aaaf513d9547, Fraction,1,1,1,1,1,0,1,1,1,0,0,0,0,0,0,0,0,0,1,1,1,1,1,1;

Schedule:Day:Hourly, 986743ba-35e3-4319-b3ba-ec28efb7a6df, Fraction,1,1,1,0,0,0,0,1,1,1,1,0,0,0,0,0,0,0,1,1,1,1,1,1;

Schedule:Day:Hourly, 4922707c-0b6f-493c-be7a-0c672398777d, Fraction,0,0,0,1,0,1,0,0,1,1,1,1,0,0,0,0,0,1,1,1,1,1,1,1;

Schedule:Day:Hourly, 79c03aa2-45e9-4bf4-9345-75f9b6aa39b0, Fraction,1,1,0,0,0,0,0,0,1,0,0,0,0,0,1,0,1,1,1,0,1,1,0,0;

Schedule:Day:Hourly, 2ec0fcee-53f8-458d-a4d4-63899c23682c, Fraction,0,0,0,0,0,0,1,0,1,0,0,0,0,0,0,0,0,0,1,1,1,1,1,1;

Schedule:Day:Hourly, d02a6661-e811-4844-a2f4-26ecfe019d58, Fraction,1,0,0,0,0,0,1,0,1,1,1,0,0,0,1,1,1,1,1,1,1,1,1,0;

Schedule:Day:Hourly, d8ecee43-e877-4a8e-b428-51ebe2120327, Fraction,0,0,0,0,0,0,0,0,1,0,0,0,0,0,0,1,0,1,1,0,0,0,0,0;

Schedule:Day:Hourly, 813e5b07-e885-4116-9611-6acde809bce6, Fraction,0,0,0,0,0,0,0,1,1,1,1,1,0,0,0,0,1,1,1,1,1,1,0,1;

Schedule:Day:Hourly, d3bc6b9c-1245-45c3-953b-f6a5af411d14, Fraction,1,1,0,0,0,0,0,0,1,0,0,0,0,0,0,0,0,0,0,1,1,1,1,1;

Schedule:Day:Hourly, 1bdd8060-4733-46d9-8452-314bf5f9c71d, Fraction,0,0,0,0,0,0,0,0,1,1,0,0,0,1,1,1,1,1,1,0,1,0,0,0;

Schedule:Day:Hourly, bdca5c7c-1441-4522-b2ca-59c636e73e27, Fraction,0,0,0,0,0,0,0,0,1,1,1,0,0,0,0,0,1,1,1,1,1,0,0,0;

Schedule:Day:Hourly, 254b9f4d-ed13-47b2-908d-b6c23f7db977, Fraction,0,0,0,0,0,0,0,0,1,0,0,1,0,0,0,1,1,1,1,0,0,0,0,0;

Schedule:Day:Hourly, d88e3914-bf30-48e6-be87-14a9bdd116fb, Fraction,0,0,0,0,0,0,0,0,1,1,0,0,0,0,0,0,0,0,1,1,1,1,1,1;

Schedule:Day:Hourly, 78807894-8bd7-4ff2-8383-adab2f45b8da, Fraction,1,0,0,1,0,0,0,0,1,0,0,0,0,0,0,0,1,0,0,0,0,0,0,0;

Schedule:Day:Hourly, 8a75de80-ef64-44d5-ab1f-ebb9a5a7da51, Fraction,0,0,1,0,0,0,0,0,1,1,0,0,0,1,1,1,0,0,1,0,0,0,0,0;

Schedule:Day:Hourly, 1ad8e6f2-fee0-482a-8231-a3e257c11f46, Fraction,0,0,0,0,0,0,0,0,1,1,0,0,0,0,0,1,0,0,0,0,0,0,0,0;

Schedule:Day:Hourly, fe31c884-96b6-411d-9f98-a812bf01f45b, Fraction,0,0,0,0,0,0,0,0,0,1,0,0,0,0,0,1,0,1,1,0,0,0,0,0;

Schedule:Day:Hourly, 652182ee-645b-4673-ac57-bb65b184bac7, Fraction,0,0,0,0,0,0,0,0,0,0,0,0,0,0,1,1,1,1,1,1,1,0,0,0;

Schedule:Day:Hourly, fd3a79a1-b1a9-4217-9083-e815b2263849, Fraction,0,0,0,0,1,1,1,1,1,1,0,0,0,0,0,0,0,1,1,1,1,1,1,1;

Schedule:Day:Hourly, d938a182-c61a-44bb-91a2-cb61c0d5bc78, Fraction,1,0,0,0,0,0,0,0,1,1,1,0,0,0,0,0,0,0,1,1,1,1,1,1;

Schedule:Day:Hourly, 34516d57-8a7b-45e6-ad4f-2c0956e13d92, Fraction,1,0,1,1,0,1,0,1,1,1,0,0,0,0,0,0,0,1,1,1,1,1,1,1;

Schedule:Day:Hourly, 0361de27-e564-4996-af33-a7e4ef186911, Fraction,1,0,0,0,0,0,0,0,1,0,0,0,0,0,0,0,0,0,1,1,1,1,1,1;

Schedule:Day:Hourly, 10ad1b31-d93d-4180-a6b3-501d90cb9226, Fraction,1,1,1,1,0,1,1,1,1,0,0,0,0,0,0,0,0,0,0,1,1,1,1,1;

Schedule:Day:Hourly, 7c4b5760-aab5-4251-9d37-f546dac7eb31, Fraction,1,1,1,1,0,0,1,0,1,1,0,0,1,0,0,0,0,0,0,0,0,0,0,0;

Schedule:Day:Hourly, 1fafa463-e820-45ac-b0f7-045e8088be78, Fraction,0,0,0,0,0,0,0,0,1,1,1,0,0,0,0,0,0,1,1,1,1,1,1,1;

Schedule:Day:Hourly, 496354b5-ef6f-40ad-b7d9-382e7a41eb27, Fraction,1,0,0,0,0,0,0,0,1,1,0,0,0,1,1,1,1,1,1,1,1,1,1,0;

Schedule:Day:Hourly, a2a9ddc8-e7a5-4343-8520-aecb1cfc32ee, Fraction,0,0,0,0,0,0,0,0,1,1,0,0,0,0,0,0,0,1,0,1,1,1,1,1;

Schedule:Day:Hourly, 6ec2f6d5-168a-451a-89a6-4a5bec7d88c9, Fraction,1,1,1,1,0,0,1,1,1,1,0,0,1,1,1,0,0,1,1,0,0,0,0,0;

Schedule:Day:Hourly, e182080c-4803-4a15-9909-01462680f901, Fraction,0,0,0,0,0,0,0,0,1,1,1,0,0,0,0,1,1,0,0,0,0,0,0,0;

Schedule:Day:Hourly, 10572860-2e39-4523-9189-20032048c0e2, Fraction,0,0,0,0,0,0,0,0,1,1,1,0,0,0,0,1,0,0,1,1,1,1,1,1;

Schedule:Day:Hourly, 22583caf-374e-4dbb-8131-83e720d0cd2f, Fraction,1,1,1,1,0,1,1,1,1,0,1,0,0,0,1,0,0,0,0,0,0,0,0,0;

Schedule:Day:Hourly, 402e8b6c-9133-4e67-9f3f-37b2c4c05176, Fraction,0,0,0,0,0,0,0,0,0,1,1,0,0,0,0,0,1,1,1,1,1,1,1,1;

Schedule:Day:Hourly, fe23925d-fab1-4248-a692-97d491659a70, Fraction,0,0,0,0,0,0,0,0,1,0,0,0,0,0,0,1,1,1,1,1,1,1,1,1;

Schedule:Day:Hourly, 982ff522-56c8-43c2-9f99-723589ab824a, Fraction,0,0,0,1,0,0,1,0,1,1,1,0,0,0,1,1,1,1,1,1,1,1,1,1;

Schedule:Day:Hourly, c937e756-0548-436b-8744-6ab04d838d06, Fraction,1,1,1,1,0,1,0,0,0,0,0,0,0,0,0,0,0,0,1,1,1,1,1,1;

Schedule:Day:Hourly, d8c4cfa4-6093-4ad9-9ed5-6e695b8785b4, Fraction,1,1,1,1,1,0,0,0,0,0,0,0,0,0,0,0,0,0,0,1,1,1,1,1;

Schedule:Day:Hourly, 666a431e-6fe4-4861-b7bf-110327c6cf3a, Fraction,1,1,1,1,0,1,0,1,1,0,0,0,0,0,0,0,0,0,0,1,1,1,1,1;

Schedule:Day:Hourly, 9ea8dee2-0c5e-45d2-bc8a-5f82c4ee92eb, Fraction,1,1,1,1,0,0,0,0,1,0,0,0,0,0,0,0,0,0,0,1,1,1,1,1;

Schedule:Day:Hourly, 7a3566af-51a2-448d-87ad-0a7a17fc473b, Fraction,1,1,1,1,1,1,1,1,0,0,0,0,0,0,1,1,1,1,1,0,1,1,1,1;

Schedule:Day:Hourly, 64b9e4ca-fbca-48f0-a8a3-dd0bc71448ec, Fraction,1,0,1,1,0,1,0,0,1,0,0,0,0,1,0,1,1,1,1,1,1,1,1,0;

Schedule:Day:Hourly, 6e3cc8d2-903b-434c-bf43-a3ceebb1c68c, Fraction,0,1,0,0,0,0,0,1,1,0,0,0,1,1,0,0,0,1,1,1,1,1,1,1;

Schedule:Day:Hourly, d8b907dd-16a7-4ebf-8c41-b4b8522f0e96, Fraction,0,0,1,0,0,0,0,0,1,0,0,0,0,0,0,1,1,1,1,1,1,1,1,1;

Schedule:Day:Hourly, 5df8d543-3edc-47c5-8867-4a471c14d1c6, Fraction,1,0,0,0,0,0,0,0,1,0,0,0,1,0,0,0,1,0,1,0,0,1,0,1;

Schedule:Day:Hourly, 06515e7c-408a-4098-9a50-0b4533809750, Fraction,0,0,0,0,0,0,0,0,1,1,1,1,0,1,1,1,1,1,1,1,1,1,0,1;

Schedule:Day:Hourly, 5ec9e65c-278b-49ac-a68f-98665dc0bdbb, Fraction,0,0,1,0,0,0,0,0,1,0,0,0,0,0,0,0,0,0,1,1,1,1,1,1;

Schedule:Day:Hourly, 530862d7-9392-45ab-b72f-b54556664677, Fraction,1,1,1,1,1,1,1,1,1,0,0,1,1,0,0,1,1,1,1,1,1,0,0,0;

Schedule:Day:Hourly, bbe2257e-95be-49a6-9cc7-6d4ac954d26f, Fraction,0,0,0,0,0,0,1,1,1,1,0,0,0,0,0,0,0,0,1,1,1,1,1,1;

Schedule:Day:Hourly, d974d193-2686-4782-9ffc-b3765c61a15a, Fraction,1,1,1,1,1,1,1,1,1,1,0,0,0,0,0,0,0,0,1,1,1,1,1,1;

Schedule:Day:Hourly, 76c09608-64f6-426f-bc13-3b99794576fb, Fraction,1,1,1,0,0,0,1,1,1,1,1,1,0,0,1,1,0,0,1,1,1,0,0,0;

Schedule:Day:Hourly, c8ed5aa7-089f-401d-8120-3030bc3ab118, Fraction,0,0,0,0,0,0,0,0,1,0,0,0,1,1,1,1,1,1,1,1,1,1,1,0;

Schedule:Day:Hourly, ca573f34-dcf1-487b-b70e-b80535cd36ec, Fraction,0,0,0,0,0,0,0,0,0,1,1,1,0,0,0,0,1,1,1,1,1,1,0,0;

Schedule:Day:Hourly, cd81066e-137e-4c09-bccc-84f0dc04c29b, Fraction,0,0,0,0,0,0,0,0,1,1,0,0,0,0,0,0,0,1,1,1,1,1,1,1;

Schedule:Day:Hourly, c78852ba-43e5-4d9f-a3bd-e8a89c3dc1ec, Fraction,0,0,0,0,0,0,0,0,1,1,0,0,0,0,1,1,0,0,0,0,0,0,0,0;

Schedule:Day:Hourly, 3774bc3a-6c2e-48d6-81e6-19a5b794aef4, Fraction,0,0,0,0,0,0,0,0,1,1,0,0,0,0,1,1,1,0,0,0,0,0,0,0;

Schedule:Day:Hourly, 098c5daf-0cc1-4bd6-bd1a-2f74cbd82e50, Fraction,1,1,1,1,0,0,0,0,1,1,1,1,1,1,1,1,1,1,1,1,1,1,0,0;

Schedule:Day:Hourly, 766f3a0c-be5d-4fcd-bba5-dc280e041cdc, Fraction,0,0,0,0,0,0,0,0,0,0,0,0,0,0,0,0,0,0,0,1,1,1,1,1;

Schedule:Day:Hourly, 8e2893e6-f6c0-4ab4-bbf0-4fbf708ac49e, Fraction,1,1,1,1,1,1,1,1,1,1,0,0,0,0,0,1,1,1,1,1,1,0,0,0;

Schedule:Day:Hourly, 582272c4-11dd-4123-9968-30791cf84bbc, Fraction,0,0,0,0,0,0,0,0,0,1,1,1,0,0,0,0,0,1,1,1,1,1,1,1;

Schedule:Day:Hourly, ad819a73-bdaa-46ab-9935-679f1109f9dc, Fraction,1,0,1,1,1,0,0,0,1,1,0,0,0,1,1,1,1,1,1,1,1,1,1,1;

Schedule:Day:Hourly, ea1c23c2-f653-41d4-9e4a-ca93569cd30e, Fraction,0,0,0,0,0,0,0,0,0,1,1,1,1,1,1,1,0,0,1,1,1,1,1,1;

Schedule:Day:Hourly, d6e612c7-1fcf-4ffd-bd0b-4b889f909098, Fraction,1,1,1,0,0,1,1,1,1,0,0,0,1,1,1,1,1,1,1,1,1,1,1,1;

Schedule:Day:Hourly, 825ff713-df9c-479d-9701-f4badd3bc821, Fraction,1,1,1,1,1,1,1,1,1,0,0,0,1,1,1,1,1,1,1,1,0,0,0,0;

Schedule:Day:Hourly, 82e3d9b1-5c39-4174-b9e2-8db07674f0a7, Fraction,0,0,0,0,0,0,0,0,1,1,0,0,0,0,0,0,0,0,0,1,1,1,1,1;

Schedule:Day:Hourly, 030357f4-a17e-4df8-9fb6-acdfd1bef41b, Fraction,1,0,0,0,0,0,1,1,1,0,0,0,0,0,0,0,0,1,1,1,1,1,1,1;

Schedule:Day:Hourly, 4a3d3433-5c31-4e00-ad36-0d27a46186b6, Fraction,1,0,0,0,0,0,0,0,0,1,1,0,0,0,0,0,1,1,1,1,1,1,1,1;

Schedule:Day:Hourly, 970b9e38-1578-4226-96b1-1c8272276cc1, Fraction,1,1,1,1,1,1,1,1,1,1,1,1,0,0,0,0,1,1,1,1,1,1,1,0;

Schedule:Day:Hourly, 94484655-902a-45bd-8d8b-092674ad4fa0, Fraction,1,1,1,1,1,1,1,1,1,1,1,1,0,0,0,0,0,0,1,1,1,1,1,1;

Schedule:Day:Hourly, 79fe45ca-36b4-4d4f-979e-053db857d759, Fraction,1,1,0,0,0,0,0,0,1,1,1,1,1,1,1,1,1,1,1,1,1,1,1,1;

Schedule:Day:Hourly, a9e66798-b3df-4874-8134-08d9b26ede38, Fraction,1,1,1,1,1,1,1,1,1,1,1,1,1,1,1,1,1,1,1,1,1,1,0,0;

Schedule:Day:Hourly, ae43de32-fb56-4e97-8269-d61590cbb33a, Fraction,1,1,1,0,0,0,0,0,0,1,1,1,1,1,1,1,0,1,1,1,1,1,1,1;

Schedule:Day:Hourly, 9ca90cbe-b7d7-401e-85f1-6ccf45c5a1ff, Fraction,1,1,1,0,0,0,0,0,1,1,0,0,0,0,0,0,0,1,1,1,1,1,1,1;

Schedule:Day:Hourly, a0c6fcf1-d50f-445b-9d6b-a134e9c70b15, Fraction,1,0,0,0,0,0,0,1,1,1,0,0,0,0,0,0,0,0,1,1,1,1,1,1;

Schedule:Day:Hourly, 8ac6d65e-b0cc-4c53-8c52-1ec210f5e02b, Fraction,1,0,0,0,0,0,0,0,0,0,0,1,0,0,0,0,0,0,1,1,1,1,1,1;

Schedule:Day:Hourly, 8c58ca0c-21a0-4efc-bc7f-8cb9db739b0c, Fraction,1,0,1,0,1,1,1,0,1,1,0,0,0,0,0,0,0,0,0,1,0,0,1,1;

Schedule:Day:Hourly, 23dd26d4-7c6b-45da-a26a-1c8a03cb5fde, Fraction,1,1,1,1,1,1,1,1,1,1,0,0,0,0,0,0,0,0,0,0,1,1,1,1;

Schedule:Day:Hourly, a451ccb8-5c74-41f9-8f72-676cd426b859, Fraction,1,1,1,1,1,1,1,1,1,1,0,1,1,0,0,0,0,0,0,1,1,1,1,1;

Schedule:Day:Hourly, a839532f-f460-4a31-862c-5278210fda82, Fraction,1,1,1,0,0,1,1,1,1,0,0,0,0,1,1,1,1,1,1,1,1,1,0,1;

Schedule:Day:Hourly, 85b4ee84-94cf-41b0-87e8-e2d63fb32b35, Fraction,1,0,0,0,0,1,0,0,1,1,1,1,0,0,0,0,0,0,0,1,1,1,1,1;

Schedule:Day:Hourly, b2fef504-51d7-4114-a156-b0cbc70e1e6f, Fraction,1,0,1,1,0,1,0,1,1,0,0,0,0,0,0,0,0,0,0,0,1,1,1,1;

Schedule:Day:Hourly, de76fccf-bdd8-4dee-a8f0-80d4afe09894, Fraction,1,1,1,1,1,1,1,0,1,0,1,1,0,0,0,1,1,0,1,1,1,1,1,1;

Schedule:Day:Hourly, 35e4b8b8-7931-47f1-8a92-fb01ed79bf69, Fraction,1,1,1,0,0,0,0,1,1,1,1,0,0,0,0,0,0,1,1,1,1,1,1,1;

Schedule:Day:Hourly, 2f20388d-a961-49d9-ad43-aa9841f316d3, Fraction,1,0,1,1,1,1,1,1,1,0,0,0,0,0,0,0,0,0,0,1,0,1,1,1;

Schedule:Day:Hourly, 28009b03-ff7d-4700-89b0-73a925d600f8, Fraction,1,1,1,1,1,1,1,1,1,1,1,0,0,0,0,0,0,1,0,0,0,0,0,1;

Schedule:Day:Hourly, 3dfb2452-3345-4546-bbea-e97b60ef5653, Fraction,1,0,0,1,0,1,1,0,1,1,1,0,0,0,1,1,0,1,1,0,0,0,0,1;

Schedule:Day:Hourly, 9b80a28f-8808-4018-933a-d637393512a2, Fraction,0,0,0,0,0,0,0,0,1,1,1,0,0,0,0,0,0,0,1,1,1,1,0,0;

Schedule:Day:Hourly, ac8b5e38-611a-4206-bae1-e5b018e1bd51, Fraction,1,0,1,1,0,0,0,0,1,1,0,0,0,1,1,1,1,0,1,0,0,1,0,0;

Schedule:Day:Hourly, 0513d88d-e255-4747-996b-387eee731851, Fraction,0,0,0,0,1,1,1,1,1,1,1,0,0,1,0,0,0,0,0,1,1,1,1,1;

Schedule:Day:Hourly, a2c22fdb-a6d6-4b8f-98ac-38466f0143ab, Fraction,1,1,1,1,0,0,0,0,0,1,0,0,0,1,0,0,0,1,1,1,1,1,1,1;

Schedule:Day:Hourly, 2c1562ea-90de-49ec-bc8f-d088cb3ab611, Fraction,1,0,0,0,0,0,0,0,1,1,1,0,0,0,0,0,1,1,1,1,1,1,1,1;

Schedule:Day:Hourly, e98c138a-8139-4dc5-be72-7e91f353fc18, Fraction,1,1,1,1,1,1,1,1,1,1,1,0,0,1,0,0,0,0,1,1,1,1,1,1;

Schedule:Day:Hourly, 179811c3-fbc3-4395-a129-422f7bd053bd, Fraction,1,1,1,1,1,1,1,1,1,0,1,0,0,0,0,0,0,0,1,1,1,1,1,1;

Schedule:Day:Hourly, aa312df4-6d07-4c6a-9f41-5fc908026b9c, Fraction,1,1,1,1,1,1,1,1,1,1,0,0,0,1,0,0,0,0,1,1,1,1,1,1;

Schedule:Day:Hourly, 2653bfb1-b2ec-438a-90ad-9d7f59078d48, Fraction,1,1,1,1,1,1,0,0,0,1,0,1,1,1,1,1,1,1,1,0,1,1,1,1;

Schedule:Day:Hourly, 91fff894-1089-4998-a3ff-2e4b30e902e7, Fraction,0,1,1,1,0,1,1,1,1,1,0,0,1,0,0,0,0,1,1,1,1,1,1,1;

Schedule:Day:Hourly, 695731ed-541a-4ab9-822e-db7b09f1cc81, Fraction,1,1,1,1,1,1,1,1,1,0,0,0,1,1,0,0,0,0,1,1,1,1,1,1;

Schedule:Day:Hourly, 3a8f4b8a-146a-4741-9e50-cff53a702171, Fraction,1,1,1,1,1,1,1,1,1,0,0,0,1,1,0,0,0,1,1,1,1,1,1,1;

Schedule:Day:Hourly, fbcbd3fe-ebe2-48b6-808e-bdf57ac485ed, Fraction,1,1,1,1,0,1,1,1,1,1,0,0,0,0,0,0,0,0,1,1,1,1,0,1;

Schedule:Day:Hourly, 822a8e29-83aa-4ff9-805a-434e80c4ec4c, Fraction,1,0,0,0,0,0,0,1,1,1,0,0,0,1,1,1,1,1,0,0,0,0,0,0;

Schedule:Day:Hourly, 6a60aca6-6272-4b6c-8ce4-7c5c88587508, Fraction,0,0,0,0,0,0,1,1,1,1,0,0,0,1,0,0,0,0,1,1,1,1,1,1;

Schedule:Day:Hourly, b7b0c29f-3db2-43dd-9901-3253e6b114d2, Fraction,1,0,0,0,0,0,0,0,1,1,1,1,1,1,0,0,1,1,1,1,1,1,1,1;

Schedule:Day:Hourly, 45508c96-c271-43ef-b818-c2c638c7d426, Fraction,0,1,0,0,0,0,0,0,1,1,0,0,0,0,0,0,0,0,0,0,0,0,0,0;

Schedule:Day:Hourly, 9d2da147-30f9-45d9-a8b8-772203a363bd, Fraction,0,0,0,0,0,0,0,0,0,0,1,1,0,1,1,1,1,1,1,1,1,1,1,0;

Schedule:Day:Hourly, 0f0b25a3-fa7a-47e7-9f1e-22465bdb1144, Fraction,0,0,0,0,0,0,0,0,1,1,1,1,1,1,0,0,1,1,1,1,0,1,1,0;

Schedule:Day:Hourly, a2469ce8-079f-4813-8533-54a8a4a7ec0c, Fraction,0,0,0,0,0,0,0,0,1,1,1,1,1,1,0,0,1,1,1,1,1,1,1,1;

Schedule:Day:Hourly, 160f9c7b-d476-49ff-9fbd-6b41c0ca5b4a, Fraction,1,0,1,0,0,0,0,0,1,1,1,0,0,0,1,1,1,1,1,1,1,1,1,1;

Schedule:Day:Hourly, 606b1700-8a8a-4dc2-bcb6-699d72fbcc7e, Fraction,1,0,0,0,0,0,0,0,0,1,1,0,0,0,0,0,0,1,1,1,1,1,1,1;

Schedule:Day:Hourly, 65f580ec-6277-48f3-bda7-8a92a0fb2796, Fraction,1,1,1,0,0,0,0,0,1,1,1,0,0,0,0,0,0,0,0,1,1,1,1,1;

Schedule:Day:Hourly, 7e72ecbc-ce6d-4b62-ac38-9320f3a4759b, Fraction,1,1,1,0,0,0,0,0,1,1,0,0,0,1,0,0,0,1,0,0,0,0,0,0;

Schedule:Day:Hourly, 9f999810-86f6-46cd-8465-7ea98df282e8, Fraction,0,1,0,0,0,0,0,0,1,1,1,1,0,1,0,1,1,1,1,1,1,1,1,1;

Schedule:Day:Hourly, 1c6477a8-279c-4fa2-9d99-68f386611f34, Fraction,1,1,1,1,1,1,1,1,1,1,1,1,1,0,0,0,1,1,1,1,1,1,1,1;

Schedule:Day:Hourly, 5be95309-829d-4cec-9992-7ead9f59b38b, Fraction,1,1,1,1,0,1,1,1,1,1,1,0,0,0,0,0,0,1,1,1,1,1,1,1;

Schedule:Day:Hourly, ae22bb0a-4c99-451a-842c-74203a045fe3, Fraction,1,1,1,1,0,1,1,1,1,0,0,1,1,0,0,0,0,0,0,0,0,0,0,0;

Schedule:Day:Hourly, 65a87164-b3cd-4363-a0be-ee22940b6275, Fraction,0,0,0,0,0,0,0,0,0,1,1,0,1,0,0,0,0,0,0,1,1,1,1,0;

Schedule:Day:Hourly, 52b250cf-30a9-4db0-986f-289c2a7cd733, Fraction,0,0,0,0,0,0,0,0,1,1,1,1,1,1,0,0,0,1,1,1,1,1,1,1;

Schedule:Day:Hourly, dac3e0f9-3491-4e57-bc9a-afae7ce91f27, Fraction,1,1,0,1,1,1,1,0,1,1,1,1,1,0,0,0,0,1,1,1,1,1,0,1;

Schedule:Day:Hourly, 1ebf1fcf-e417-4b3e-812d-74ab80396352, Fraction,1,1,0,0,0,0,0,0,1,1,1,0,0,0,0,0,0,0,1,1,1,1,1,1;

Schedule:Day:Hourly, bed57fee-2056-4a78-8198-3f14cc4dbccf, Fraction,1,1,0,0,0,0,0,0,1,1,0,0,0,0,0,0,0,0,0,1,1,1,1,1;

Schedule:Day:Hourly, 1c299e64-2fba-4fce-9bb8-d1d341ba3893, Fraction,1,1,0,0,0,0,0,0,1,0,0,0,0,0,0,0,0,0,1,1,1,1,1,1;

Schedule:Day:Hourly, b0bc0f61-c4b5-4b52-bf28-dc2ddffa9202, Fraction,1,1,0,0,0,0,0,0,1,1,0,0,0,0,0,0,0,0,1,1,1,1,1,1;

Schedule:Day:Hourly, 5e4ce27b-cb97-4e16-99c2-011b14feb967, Fraction,1,1,0,0,0,0,0,0,1,0,1,0,0,0,0,0,0,0,1,1,1,1,1,1;

Schedule:Day:Hourly, 9f243400-03c4-4387-8d7e-d7bc2dc5475f, Fraction,1,1,1,1,1,1,1,1,1,1,1,0,0,0,0,0,0,0,1,1,1,1,1,1;

Schedule:Day:Hourly, 763f4b5b-1f6c-45c4-8f3a-01a539791703, Fraction,1,1,1,1,1,1,1,1,1,0,0,0,0,0,0,0,0,1,1,1,1,1,1,1;

Schedule:Day:Hourly, d528ecc2-3a71-4809-8f35-e5591cdc325a, Fraction,1,0,0,0,0,0,0,0,0,0,0,0,1,1,1,0,0,1,1,1,1,1,1,1;

Schedule:Day:Hourly, bfcd000f-6657-4bf1-949c-33c9a105fd6e, Fraction,1,0,1,0,0,0,0,0,0,1,1,1,0,0,0,0,0,1,1,1,1,1,1,0;

Schedule:Day:Hourly, 395a23c3-b6b4-4097-89b1-4f89d4083139, Fraction,1,1,1,0,0,0,1,0,1,1,1,0,1,1,1,1,1,1,1,1,1,1,1,1;

Schedule:Day:Hourly, 30da284c-5dca-4c88-863e-eb646377d63a, Fraction,0,0,0,0,0,0,0,0,1,1,1,0,0,1,1,1,1,1,1,1,1,1,1,1;

Schedule:Day:Hourly, b43fce6d-735d-471e-9a4e-4ba7b0025a88, Fraction,1,1,1,1,1,1,0,0,1,1,1,1,0,0,0,1,1,1,1,1,1,1,1,1;

Schedule:Day:Hourly, b9d924dc-6218-4a3b-9526-ec1276b54b09, Fraction,1,1,0,0,0,0,0,0,1,1,1,1,0,0,0,0,1,1,1,1,1,1,1,1;

Schedule:Day:Hourly, 07e0bbaf-0093-4174-946f-9e667d264f70, Fraction,1,1,1,0,0,0,1,1,1,1,1,0,0,0,0,0,0,0,1,1,1,1,1,1;

Schedule:Day:Hourly, dc573b19-2802-4ac1-89ff-cc38adaf65b3, Fraction,1,1,1,0,0,0,1,1,1,1,0,0,0,0,0,0,0,0,0,1,1,1,1,1;

Schedule:Day:Hourly, 9addbb18-d5ec-4cd6-adf6-2ee4d387c279, Fraction,1,1,1,1,1,0,0,1,1,1,1,1,1,1,1,1,1,1,1,1,1,1,1,1;

Schedule:Day:Hourly, bd5e9481-64a7-4eaa-a43a-64824bc40272, Fraction,1,1,1,1,1,1,1,1,1,1,1,1,0,1,0,0,0,0,1,1,1,1,1,1;

Schedule:Day:Hourly, 9202f287-4b87-4056-ab0b-0b81f7d1c492, Fraction,1,1,1,1,1,0,0,0,1,1,1,0,0,0,0,0,1,1,1,1,1,1,1,1;

Schedule:Day:Hourly, 33bc15ab-744b-428e-877b-c407896f31b5, Fraction,1,1,1,1,1,1,1,1,1,0,1,0,0,0,1,0,1,1,1,1,1,1,1,1;

Schedule:Day:Hourly, 992b67ff-fe72-4ff7-ad69-96e24b4b4df9, Fraction,1,1,1,1,0,1,0,1,1,1,0,0,0,1,0,0,0,1,1,1,0,0,0,0;

Schedule:Day:Hourly, 7657e75c-8576-4e21-b1c7-82ce2867edf4, Fraction,0,0,1,1,0,0,0,0,1,1,1,1,1,1,1,1,1,1,1,1,1,1,1,1;

Schedule:Day:Hourly, a7c9fe19-fe7f-4eb4-b45f-98fe3a5527c5, Fraction,1,1,1,1,1,0,1,0,1,1,1,0,0,0,0,0,1,1,1,0,0,0,0,0;

Schedule:Day:Hourly, f7cdd27f-7df3-4f36-84d1-b1585ce04bec, Fraction,0,0,0,1,1,0,0,0,1,1,1,1,1,1,1,1,1,1,1,1,1,1,1,1;

Schedule:Day:Hourly, d1744ad3-4e72-4502-be93-4886e1ac6287, Fraction,1,1,1,1,0,1,0,0,0,1,1,1,0,1,1,1,1,1,1,1,1,1,1,1;

Schedule:Day:Hourly, 0be99d44-deb1-43cd-bcc7-995607d0fd97, Fraction,1,1,1,0,1,1,1,1,1,1,1,0,0,1,0,0,1,0,1,1,1,1,1,1;

Schedule:Day:Hourly, c63af397-305f-4b1a-8c20-da4a58ab338c, Fraction,1,1,1,1,1,1,1,1,1,1,1,0,0,1,1,1,1,1,1,1,1,1,1,0;

Schedule:Day:Hourly, 6eef18be-a373-493d-b3cf-ec9a95af89e6, Fraction,0,1,0,0,0,0,0,0,1,1,1,0,0,0,0,0,1,1,1,1,1,1,1,1;

Schedule:Day:Hourly, d78a9077-5419-44ef-b5de-57504073fa16, Fraction,1,0,0,0,0,0,0,0,1,1,0,1,1,1,0,1,1,1,1,1,0,0,0,0;

Schedule:Day:Hourly, 8331e6d2-ce71-48ae-9648-af841f643f12, Fraction,0,0,0,1,0,1,1,1,1,1,1,1,0,0,0,0,1,0,1,1,1,1,1,1;

Schedule:Day:Hourly, be5be84a-766d-401a-81e2-b4fcbafea855, Fraction,1,1,1,1,1,1,0,0,1,1,1,0,0,1,1,1,1,1,1,1,1,1,1,1;

Schedule:Day:Hourly, 8712eee0-404e-4321-86fc-2fab5af1df95, Fraction,1,0,0,0,0,0,1,0,0,0,0,1,1,1,1,1,1,1,1,1,1,1,1,1;

Schedule:Day:Hourly, f50c5f85-8bf2-400d-995b-9f336467659d, Fraction,1,1,1,0,1,0,0,1,1,1,1,0,1,0,0,0,0,0,0,1,1,1,1,1;

Schedule:Day:Hourly, 8efc6617-0a14-4e2a-ad5c-2a6064d475ce, Fraction,1,1,1,0,0,0,1,1,1,1,1,1,0,0,0,0,1,1,1,1,1,1,1,1;

Schedule:Day:Hourly, e9ffeb0e-5e74-460b-9b0d-1a75f276f782, Fraction,1,0,0,0,0,1,0,0,1,1,1,0,0,0,0,0,0,0,0,1,1,1,1,1;

Schedule:Day:Hourly, dd520b65-aea7-4648-80dd-9b3e181c3951, Fraction,1,1,0,0,0,1,1,0,1,1,0,0,0,0,0,0,0,0,0,0,1,1,1,1;

Schedule:Day:Hourly, ed2dd2a0-4705-45d9-b366-4dd800bf9cce, Fraction,1,1,1,1,1,1,1,0,1,1,0,0,0,0,0,0,1,0,0,0,0,0,1,1;

Schedule:Day:Hourly, b831ff56-2d01-488d-9154-288df4592700, Fraction,1,1,1,1,1,1,1,1,1,0,1,0,0,0,1,1,1,1,1,1,1,1,0,0;

Schedule:Day:Hourly, f29f44c4-4c75-40a4-9214-85368da843e1, Fraction,0,0,0,0,0,0,0,0,0,1,0,1,1,0,1,1,1,1,1,0,1,1,1,0;

Schedule:Day:Hourly, 236b3a5a-3e62-4cd8-a473-3beb26d3bb48, Fraction,0,0,0,0,0,0,0,0,1,1,1,0,0,0,1,1,0,0,1,1,1,1,1,0;

Schedule:Day:Hourly, 8f973ea8-d3f0-47fa-a712-8b8124f2095f, Fraction,1,1,1,1,1,1,1,1,1,1,0,1,0,0,0,1,1,1,1,1,1,1,1,1;

Schedule:Day:Hourly, e17d3aff-b1fd-4cc1-a7e0-ffb300b27aef, Fraction,1,0,0,0,0,0,0,0,0,1,0,0,0,0,0,1,1,1,1,0,1,0,0,0;

Schedule:Day:Hourly, f745b0d0-a055-482f-a1e4-9e99ad588fbd, Fraction,1,1,1,1,0,0,0,0,0,0,0,1,1,1,1,1,1,1,0,1,1,1,1,1;

Schedule:Day:Hourly, 74e189e6-b24c-40f0-8b5c-6e5a5149dca1, Fraction,1,0,1,1,0,1,1,0,1,1,0,0,0,1,1,0,1,1,1,1,1,1,1,1;

Schedule:Day:Hourly, 1c2463e0-c47e-4629-a3c2-c36db15e1af8, Fraction,1,1,1,1,0,0,0,0,1,1,0,0,1,1,1,1,1,1,1,1,1,1,1,1;

Schedule:Day:Hourly, 50f5adca-142b-4f93-abbb-3dc690b59aa2, Fraction,1,1,1,1,1,0,1,1,1,0,1,0,0,0,0,0,1,1,1,1,1,1,1,0;

Schedule:Day:Hourly, 985561fa-b3b8-4bb9-82db-366112689a19, Fraction,0,0,0,0,0,0,0,0,1,0,0,0,0,0,0,0,1,1,1,1,1,1,1,1;

Schedule:Day:Hourly, 036ace8c-e2c6-4d0f-9ee7-9a7e737f3e99, Fraction,1,1,1,1,1,1,1,1,1,0,0,0,0,0,0,1,1,1,1,1,1,1,1,1;

Schedule:Day:Hourly, af250eb4-ab39-4f93-8ee1-c149dbe89c17, Fraction,1,0,1,1,0,0,0,0,1,0,0,0,0,0,0,0,0,0,1,1,1,1,1,1;

Schedule:Day:Hourly, 1559ebaf-3d23-4139-b2e9-8c481f0e7c14, Fraction,1,1,0,0,0,0,0,0,1,1,1,1,1,0,1,0,0,1,1,1,1,1,1,1;

Schedule:Day:Hourly, e0aec5a3-1b72-4e6b-afbb-2fc763c44da1, Fraction,1,1,0,0,0,0,0,0,0,0,1,1,1,1,1,1,1,1,1,1,0,1,1,1;

Schedule:Day:Hourly, f4597424-6154-4ca2-96ff-321031db2599, Fraction,0,0,0,0,0,1,1,1,1,1,1,0,0,0,0,0,0,1,1,1,1,1,1,1;

Schedule:Day:Hourly, b671d1a5-2d69-4804-8a70-06291134641a, Fraction,1,0,0,0,0,0,0,1,1,1,1,1,1,1,1,1,0,0,0,0,0,0,0,0;

Schedule:Day:Hourly, 3afea486-2583-4550-94fb-fdb7084e117b, Fraction,1,0,1,1,0,1,1,1,1,1,1,1,0,1,1,1,1,1,1,1,1,1,1,1;

Schedule:Day:Hourly, 2c943585-45a3-44fd-9bfa-927e39befbb2, Fraction,1,0,0,0,0,0,0,0,0,0,1,1,1,1,1,0,0,1,1,1,1,1,1,1;

Schedule:Day:Hourly, f0d82c88-69e3-4069-81b6-852a321f0d2e, Fraction,0,0,0,1,0,0,0,0,1,1,0,0,0,0,0,0,0,0,1,1,1,1,1,1;

Schedule:Day:Hourly, 8ad3db3a-c393-4c17-8ab3-9f8a9cd223e8, Fraction,1,0,1,1,1,1,1,1,1,1,0,1,1,1,0,0,0,0,0,1,1,1,1,0;

Schedule:Day:Hourly, 64775ce5-51f6-479d-936c-666da4c0e263, Fraction,0,0,0,0,0,1,0,0,0,1,1,1,1,0,0,1,1,1,1,1,1,1,1,0;

Schedule:Day:Hourly, 467233ab-17b9-46ed-b333-470cf25a3b61, Fraction,0,0,0,0,0,0,1,1,1,1,1,0,0,0,0,0,0,1,1,1,1,1,1,1;

Schedule:Day:Hourly, 400fbd89-6a9a-4f3f-b961-96aebd289ffe, Fraction,1,0,0,0,0,0,0,1,1,1,1,0,0,0,0,1,1,1,1,1,1,1,1,1;

Schedule:Day:Hourly, f2f22715-208d-480c-bc34-0e05d9e07550, Fraction,1,1,0,0,0,0,0,1,1,1,0,0,0,0,1,1,1,1,1,1,1,1,1,1;

Schedule:Day:Hourly, d7d4fcac-1618-4ffc-910c-99a80cf8ea90, Fraction,0,0,0,0,0,0,0,1,1,0,0,0,1,1,1,1,1,1,1,1,1,1,1,1;

Schedule:Day:Hourly, 6d467089-60c1-48d7-b5e6-d764d023333e, Fraction,0,0,0,0,0,0,0,0,1,0,0,1,1,1,0,0,1,1,1,1,1,1,1,1;

Schedule:Day:Hourly, e193737e-c004-4530-8a46-aeac849c8fda, Fraction,1,1,1,0,0,0,1,1,1,0,0,0,0,0,0,0,0,0,1,1,1,1,1,1;

Schedule:Day:Hourly, 4fca6940-469e-4616-a284-faedae0a86b0, Fraction,1,1,1,1,1,1,1,0,0,0,0,1,1,1,1,1,1,1,1,1,1,1,1,0;

Schedule:Day:Hourly, 933d718d-a17e-42a0-a095-e51b434c67a3, Fraction,0,0,0,0,0,0,0,0,1,1,1,0,0,0,0,1,1,1,0,0,0,0,0,0;

Schedule:Day:Hourly, e26969a6-b844-423a-8de8-f05bae88bc7f, Fraction,0,0,0,0,0,0,0,0,0,0,0,0,0,0,0,1,1,1,1,0,0,0,1,0;

Schedule:Day:Hourly, 6f99fe73-5a6b-4cd7-9699-fe41b9b4fdb1, Fraction,0,0,0,0,0,0,0,0,1,1,0,0,1,0,1,1,1,1,1,1,1,1,1,0;

Schedule:Day:Hourly, d31861b0-2c0d-444b-bbe2-dcfba0b70559, Fraction,0,0,0,0,0,0,0,1,1,1,0,1,1,1,1,1,1,1,1,0,0,0,0,0;

Schedule:Day:Hourly, 44c12b3d-d4a0-473f-af46-3b3ba23a5a72, Fraction,0,0,0,0,0,1,1,1,1,1,0,0,0,0,0,0,0,1,1,1,1,1,1,1;

Schedule:Day:Hourly, edb50731-ecd9-4187-b2f2-7591e84682a3, Fraction,0,0,0,0,0,0,0,0,0,0,1,1,1,1,1,1,0,1,1,1,1,1,1,1;

Schedule:Day:Hourly, dbdb7627-30c7-42a3-b13c-dc2dc4ad6f68, Fraction,0,0,0,0,0,0,0,0,0,0,0,0,1,1,1,1,1,1,1,1,1,0,0,0;

Schedule:Day:Hourly, 4cea222c-acbf-483a-a854-c9ae00a703bd, Fraction,0,0,0,0,0,0,0,1,1,1,0,0,0,0,0,0,0,1,1,1,1,0,0,0;

Schedule:Day:Hourly, 96287ec3-835f-49f9-9695-d3bb7075f5fa, Fraction,0,0,0,0,0,0,0,0,1,1,0,0,0,0,1,0,0,0,0,0,0,0,0,0;

Schedule:Day:Hourly, 9f6f4aa2-a0df-4436-86a6-cf55351a6b03, Fraction,0,0,0,0,0,0,0,0,0,1,1,1,1,0,1,1,1,1,1,1,1,1,1,1;

Schedule:Day:Hourly, 329b9bb8-79bf-4755-863b-a99b57634229, Fraction,0,0,0,0,0,0,0,0,1,0,0,0,0,0,0,0,0,1,0,0,0,0,0,0;

Schedule:Day:Hourly, 85756e39-209f-4d62-96e1-c15adcc0d110, Fraction,0,0,0,0,0,0,0,0,1,1,0,0,0,0,0,0,1,1,1,1,1,1,0,0;

Schedule:Day:Hourly, cf1da3c6-321d-4a6b-8af2-95262897b228, Fraction,0,0,0,0,0,0,0,1,1,1,0,0,0,1,1,1,1,0,0,0,0,0,0,0;

Schedule:Day:Hourly, 001355dc-0c9d-452f-a199-877305320c6a, Fraction,0,0,0,0,0,0,0,0,1,1,0,0,0,0,0,0,0,1,1,1,1,1,1,0;

Schedule:Day:Hourly, cfbe6a16-78f1-474a-8cc6-5fd69820ab00, Fraction,0,0,0,0,1,0,0,1,1,1,1,0,0,0,0,0,1,1,1,1,1,1,1,1;

Schedule:Day:Hourly, 3b3e01ca-0117-4fcc-b841-a6c252759f2a, Fraction,1,1,1,1,1,0,0,0,1,1,1,1,1,0,1,1,1,1,1,1,1,1,1,1;

Schedule:Day:Hourly, 2f84931d-97e8-4039-b7ee-3bc8e6d3ee7f, Fraction,0,0,0,0,0,0,0,0,1,1,0,0,0,0,1,1,1,1,1,1,1,1,1,1;

Schedule:Day:Hourly, 3c421ea3-05dc-4a9a-b2e8-f541aad9510c, Fraction,1,1,1,1,1,1,1,0,1,1,1,1,1,0,1,1,1,1,1,1,1,1,0,0;

Schedule:Day:Hourly, 5f3b531b-a65b-4ba6-9ae6-bd3fa6683878, Fraction,0,0,0,0,0,0,0,0,1,1,1,0,1,1,1,1,1,1,1,1,1,0,0,0;

Schedule:Day:Hourly, 98e16f1b-b9c2-4df9-960e-1da2fcac8736, Fraction,0,0,0,0,0,0,0,0,1,1,1,1,0,0,0,1,1,1,1,1,1,1,0,0;

Schedule:Day:Hourly, 67f4b09b-04ed-4458-87ac-27ae710c4644, Fraction,0,0,0,0,0,0,0,0,0,1,1,1,0,0,1,1,1,1,1,0,0,0,0,0;

Schedule:Day:Hourly, d3c0964f-abe3-4197-bd42-60dc30725a15, Fraction,0,0,0,0,0,0,0,0,1,0,1,1,0,0,0,0,0,0,0,0,0,0,0,0;

Schedule:Day:Hourly, 6d196519-915d-44e8-bef6-4e7820e91310, Fraction,0,0,0,0,0,0,0,0,1,1,0,1,1,1,1,1,1,1,0,0,0,0,0,0;

Schedule:Day:Hourly, ab3ab5c6-cdb9-4f25-9e36-9b180251c96d, Fraction,0,0,0,0,0,0,0,0,0,1,1,1,1,0,1,1,1,1,0,0,0,0,0,0;

Schedule:Day:Hourly, a960b0a7-ee56-4169-bf5c-2b172a969311, Fraction,0,0,0,0,0,0,0,0,0,1,1,1,0,1,1,1,1,1,1,1,1,1,1,0;

Schedule:Day:Hourly, f7653263-9cb9-40a3-b347-333394554e07, Fraction,0,0,0,0,0,0,0,0,0,1,1,1,0,0,0,0,1,0,0,0,0,0,0,0;

Schedule:Day:Hourly, 83a2e5a3-8d66-4e38-acb3-6b4cbfb2f760, Fraction,0,0,0,0,0,0,0,0,1,1,0,0,1,1,1,1,0,0,0,0,0,0,0,0;

Schedule:Day:Hourly, 6e75f2a5-1717-4f66-bdfb-14e74839c568, Fraction,0,0,0,0,0,0,0,0,1,1,1,1,0,0,0,0,0,0,0,0,0,0,0,0;

Schedule:Day:Hourly, 17a86043-249f-4e08-9b7f-c6febccc7259, Fraction,0,0,0,0,0,0,0,0,1,1,1,1,1,1,1,0,0,0,0,0,0,0,0,0;

Schedule:Day:Hourly, 25eac55b-ee60-452b-9dbe-0bc5cebfb323, Fraction,0,0,0,0,0,0,0,0,0,0,0,0,0,0,0,1,1,1,0,0,0,0,0,0;

Schedule:Day:Hourly, acc2b245-3d8f-49b9-ad86-4034df56adf4, Fraction,0,0,0,0,0,0,0,0,1,0,0,0,0,0,0,0,0,0,0,0,0,0,0,0;

Schedule:Day:Hourly, 2fdb59e5-a4e1-4dc9-a10a-ce3436e4fa1e, Fraction,0,0,0,0,0,0,0,0,0,1,1,1,1,1,1,1,0,0,1,1,1,1,0,0;

Schedule:Day:Hourly, 4829eeac-7c87-4958-a49a-8a27e8abc40b, Fraction,0,0,0,0,0,0,0,1,1,1,0,0,0,0,0,0,0,1,1,1,1,1,1,1;

Schedule:Day:Hourly, 3a2d8f03-20a7-4868-8488-651e13e25f10, Fraction,1,0,0,0,0,0,0,0,1,1,0,1,0,0,0,1,1,1,1,1,1,1,1,0;

Schedule:Day:Hourly, 85bb2c3c-e1e9-49a9-9c9f-dd179637a717, Fraction,0,0,0,0,0,0,0,0,1,1,1,0,0,0,1,1,1,0,0,0,0,0,0,0;

Schedule:Day:Hourly, 87c1a482-6570-4839-a34d-419b1d4c86f5, Fraction,0,0,0,0,0,0,0,0,1,1,0,0,0,0,0,0,0,0,1,1,1,1,0,0;

Schedule:Day:Hourly, e92e6a11-b13c-4078-8eac-6a77fca79159, Fraction,0,0,0,0,0,0,0,0,1,1,0,1,1,1,0,0,0,0,0,0,0,0,0,0;

Schedule:Day:Hourly, de4c41c6-8472-4a7a-b3e7-ab9671e58963, Fraction,0,0,0,0,0,0,0,0,1,1,1,0,0,1,1,1,1,1,1,1,0,0,0,0;

Schedule:Day:Hourly, 9aebc4d0-26e0-4a05-951b-712c09e630cd, Fraction,0,0,0,0,0,0,0,0,1,1,0,0,0,0,1,1,0,1,1,1,1,0,0,0;

Schedule:Day:Hourly, d607d840-65f3-443d-aecd-4b0e159aa238, Fraction,0,0,0,0,0,0,0,0,0,1,0,0,0,0,0,0,0,1,1,1,1,1,0,0;

Schedule:Day:Hourly, 704ba9f1-b580-4d20-9e91-3d9c12dd0f36, Fraction,0,0,0,0,0,0,0,0,1,1,0,0,0,1,0,0,1,1,0,0,0,0,0,0;

Schedule:Day:Hourly, fbc41778-4111-4c45-ab1c-90cc42a09862, Fraction,0,0,0,0,0,0,0,0,0,1,1,1,1,0,1,1,1,1,1,1,1,0,0,0;

Schedule:Day:Hourly, 9b5b3100-4b02-47d0-bce3-d94fa52f08f7, Fraction,0,0,0,0,0,0,0,0,1,1,1,0,0,0,0,1,1,1,1,1,1,1,1,1;

Schedule:Day:Hourly, ce00610e-a32a-4ece-b26e-120aa42c7228, Fraction,1,0,0,0,0,0,0,1,1,1,0,0,0,0,1,1,1,1,1,1,0,0,0,1;

Schedule:Day:Hourly, 6737b8d2-f567-4d34-99d2-f4ad80a52468, Fraction,1,1,1,1,1,1,1,1,1,1,1,0,0,1,1,0,1,1,1,1,1,1,1,1;

Schedule:Day:Hourly, 084ceae8-8b00-4660-976d-57e44b0cd5e7, Fraction,1,1,1,1,1,1,1,1,1,1,1,0,0,0,0,1,1,1,1,1,1,1,1,1;

Schedule:Day:Hourly, de16a74b-8da1-4d14-a032-3af18f43bd55, Fraction,1,1,1,1,1,1,1,1,1,1,1,0,1,1,1,1,1,1,1,1,1,1,1,1;

Schedule:Day:Hourly, c3097590-644c-41fd-9569-c0059c91166c, Fraction,1,1,1,1,0,1,1,1,1,1,1,0,0,0,1,1,1,1,1,1,1,1,1,1;

Schedule:Day:Hourly, e30310f3-81ec-459c-9faa-30047b0ae1af, Fraction,1,1,1,1,0,1,1,1,1,1,1,0,0,0,1,0,0,0,1,1,0,0,0,0;

Schedule:Day:Hourly, a76dce38-3209-42e0-b7ba-c4b8023e9346, Fraction,0,0,0,1,0,0,0,0,1,0,0,0,0,0,0,0,0,0,0,0,0,0,0,0;

Schedule:Day:Hourly, d887af66-3536-4834-bc5d-0baeb41215c9, Fraction,0,0,0,0,0,0,0,0,0,1,1,1,0,0,1,1,0,0,0,0,0,0,0,0;

Schedule:Day:Hourly, 3f709877-ca24-4eac-a6bc-b89a9bb1e5b0, Fraction,0,0,0,0,0,0,0,0,0,1,1,0,0,1,0,1,0,0,1,0,1,1,0,1;

Schedule:Day:Hourly, 2a04d83a-0448-47be-a510-ff10fa25223e, Fraction,1,0,0,0,0,0,0,0,0,0,0,0,0,1,1,1,1,1,1,1,0,0,0,0;

Schedule:Day:Hourly, 141a5f00-de8e-43ea-a320-b35ca03feaf6, Fraction,0,0,0,0,0,0,0,0,0,0,0,0,1,1,1,1,1,1,1,0,0,0,0,0;

Schedule:Day:Hourly, 1be3a314-f64a-41b9-9b82-cdeb1f3612ab, Fraction,0,0,0,0,0,0,0,0,0,0,0,0,0,0,1,0,0,0,1,0,0,0,0,0;

Schedule:Day:Hourly, e8899921-19ed-4b59-abe1-781bdcf05ea4, Fraction,0,0,0,0,0,0,0,0,0,1,1,1,1,1,1,1,1,1,1,1,0,0,0,0;

Schedule:Day:Hourly, 920b140d-c558-48a4-b198-0b9693440f3c, Fraction,0,0,0,0,0,0,0,0,1,1,1,1,0,0,0,0,1,1,1,1,1,1,0,1;

Schedule:Day:Hourly, 33009ea6-02d0-4185-8cfe-981264cebca3, Fraction,0,0,0,0,0,0,0,0,0,0,1,0,0,0,0,1,1,1,1,1,0,0,0,1;

Schedule:Day:Hourly, 4ce3d1fc-0161-40da-9a8b-38a71a0e1ad9, Fraction,0,0,0,0,0,0,0,0,0,1,1,1,1,0,0,0,0,0,0,0,0,0,0,0;

Schedule:Day:Hourly, c2c7da96-472e-4291-bc3e-9cf49859e87a, Fraction,0,0,0,0,0,0,0,0,0,0,1,1,1,1,1,1,1,0,1,0,0,0,0,0;

Schedule:Day:Hourly, edd05a41-e019-4b9b-b93f-d20d6fc79ab3, Fraction,0,0,0,0,0,0,0,0,1,1,1,1,0,1,0,1,0,0,0,0,1,0,0,0;

Schedule:Day:Hourly, ce7753f5-cce8-4b4b-915a-e604bb3164cb, Fraction,0,0,0,0,0,0,0,0,1,1,1,1,0,1,1,1,1,1,1,1,1,0,0,0;

Schedule:Day:Hourly, 59236d2b-73d4-4188-a274-12928467ce5b, Fraction,0,0,0,0,0,0,0,0,1,1,1,0,1,0,0,1,1,1,1,1,1,1,1,0;

Schedule:Day:Hourly, 6081d968-d7ff-45b7-be75-8165c582db9b, Fraction,0,0,1,1,0,0,1,0,1,1,1,1,0,1,1,1,1,1,1,1,1,1,1,1;

Schedule:Day:Hourly, 7c0725e3-9913-4fe2-876b-67c571e020ed, Fraction,1,1,0,1,1,1,0,1,1,1,1,1,1,0,0,1,1,1,1,1,1,1,1,1;

Schedule:Day:Hourly, 1d88526b-adae-4e78-8894-d935f60a73ab, Fraction,1,1,1,1,1,1,1,1,1,1,1,0,0,0,0,0,1,1,1,1,1,1,0,1;

Schedule:Day:Hourly, b2493e04-3c68-4a53-b039-0fe1365f87c3, Fraction,0,0,1,1,0,1,1,0,1,1,1,0,0,0,0,1,1,1,1,1,1,1,1,1;

Schedule:Day:Hourly, dbe4a0a7-0a0c-4a06-b6b1-43fffc713dd4, Fraction,1,0,1,0,0,0,0,0,1,1,1,0,0,0,0,0,1,1,1,1,1,1,1,1;

Schedule:Day:Hourly, 97747ef6-9000-4a3b-9dc8-e5795c20cec8, Fraction,1,0,0,0,0,0,0,0,1,1,1,1,0,0,0,0,1,1,1,1,1,1,1,1;

Schedule:Day:Hourly, 1de4bbb1-2ca0-4796-8eb3-9f55224dc10d, Fraction,1,1,1,0,0,1,1,0,1,1,1,0,0,0,0,0,1,1,1,1,1,1,1,1;

Schedule:Day:Hourly, 5d938de8-fe3e-4f5b-a9df-bb3d1125d439, Fraction,1,0,0,0,0,1,1,0,1,1,1,1,1,1,1,1,1,1,1,1,1,1,0,0;


Schedule:Year,GlobalCO2,
AnyNumber,
GlobalCO2_0,1,1,1,7, 
GlobalCO2_1,1,8,1,14, 
GlobalCO2_2,1,15,1,21, 
GlobalCO2_3,1,22,1,28, 
GlobalCO2_4,1,29,2,4, 
GlobalCO2_5,2,5,2,11, 
GlobalCO2_6,2,12,2,18, 
GlobalCO2_7,2,19,2,25, 
GlobalCO2_8,2,26,3,4, 
GlobalCO2_9,3,5,3,11, 
GlobalCO2_10,3,12,3,18, 
GlobalCO2_11,3,19,3,25, 
GlobalCO2_12,3,26,4,1, 
GlobalCO2_13,4,2,4,8, 
GlobalCO2_14,4,9,4,15, 
GlobalCO2_15,4,16,4,22, 
GlobalCO2_16,4,23,4,29, 
GlobalCO2_17,4,30,5,6, 
GlobalCO2_18,5,7,5,13, 
GlobalCO2_19,5,14,5,20, 
GlobalCO2_20,5,21,5,27, 
GlobalCO2_21,5,28,6,3, 
GlobalCO2_22,6,4,6,10, 
GlobalCO2_23,6,11,6,17, 
GlobalCO2_24,6,18,6,24, 
GlobalCO2_25,6,25,7,1, 
GlobalCO2_26,7,2,7,8, 
GlobalCO2_27,7,9,7,15, 
GlobalCO2_28,7,16,7,22, 
GlobalCO2_29,7,23,7,29, 
GlobalCO2_30,7,30,8,5, 
GlobalCO2_31,8,6,8,12, 
GlobalCO2_32,8,13,8,19, 
GlobalCO2_33,8,20,8,26, 
GlobalCO2_34,8,27,9,2, 
GlobalCO2_35,9,3,9,9, 
GlobalCO2_36,9,10,9,16, 
GlobalCO2_37,9,17,9,23, 
GlobalCO2_38,9,24,9,30, 
GlobalCO2_39,10,1,10,7, 
GlobalCO2_40,10,8,10,14, 
GlobalCO2_41,10,15,10,21, 
GlobalCO2_42,10,22,10,28, 
GlobalCO2_43,10,29,11,4, 
GlobalCO2_44,11,5,11,11, 
GlobalCO2_45,11,12,11,18, 
GlobalCO2_46,11,19,11,25, 
GlobalCO2_47,11,26,12,2, 
GlobalCO2_48,12,3,12,9, 
GlobalCO2_49,12,10,12,16, 
GlobalCO2_50,12,17,12,23, 
GlobalCO2_51,12,24,12,30, 
GlobalCO2_52,12,31,12,31;

Schedule:Week:Daily, GlobalCO2_0,
  f603fb4c-c7f5-497c-a5ff-b33782d0d8b6, !- Sunday Schedule:Day Name
  2b48337c-9f18-4644-badd-29cdf0631df4, !- Monday Schedule:Day Name
  88dc6e24-de6e-4ff9-92b9-6bb5f0d3cca8, !- Tuesday Schedule:Day Name
  c14fa044-c178-446f-8b61-6782a287cf6b, !- Wednesday Schedule:Day Name
  8c586e85-1d03-4805-a352-f54ea5b8507f, !- Thursday Schedule:Day Name
  4e7b190f-be5e-427d-950d-935a63f548c4, !- Friday Schedule:Day Name
  f2fe9c51-7452-49c7-878f-786ea7e27336, !- Saturday Schedule:Day Name
  f603fb4c-c7f5-497c-a5ff-b33782d0d8b6, !- Holiday Schedule:Day Name
  f603fb4c-c7f5-497c-a5ff-b33782d0d8b6, !- SummerDesignDay Schedule:Day Name
  f603fb4c-c7f5-497c-a5ff-b33782d0d8b6, !- WinterDesignDay Schedule:Day Name
  f603fb4c-c7f5-497c-a5ff-b33782d0d8b6, !- CustomDay1 Schedule:Day Name
  f603fb4c-c7f5-497c-a5ff-b33782d0d8b6; !- CustomDay2 Schedule:Day Name

Schedule:Week:Daily, GlobalCO2_1,
  e040591a-8bdf-4198-b6a9-1fadeeec3558, !- Sunday Schedule:Day Name
  68731062-6c02-45d2-b86f-d65aff7c3800, !- Monday Schedule:Day Name
  bfa0f2e7-df6e-4ed4-8df3-c2f6cd60c90c, !- Tuesday Schedule:Day Name
  93518041-7e3e-4ef8-b8e0-83750d1f27de, !- Wednesday Schedule:Day Name
  081974b6-d0e6-4484-b799-05a88c40cdbd, !- Thursday Schedule:Day Name
  153a8c0c-038d-4c97-9288-419843f92193, !- Friday Schedule:Day Name
  6bba0d35-dbb5-4f94-8cec-9e1b13297348, !- Saturday Schedule:Day Name
  e040591a-8bdf-4198-b6a9-1fadeeec3558, !- Holiday Schedule:Day Name
  e040591a-8bdf-4198-b6a9-1fadeeec3558, !- SummerDesignDay Schedule:Day Name
  e040591a-8bdf-4198-b6a9-1fadeeec3558, !- WinterDesignDay Schedule:Day Name
  e040591a-8bdf-4198-b6a9-1fadeeec3558, !- CustomDay1 Schedule:Day Name
  e040591a-8bdf-4198-b6a9-1fadeeec3558; !- CustomDay2 Schedule:Day Name

Schedule:Week:Daily, GlobalCO2_2,
  06920860-7269-4281-9f02-e85ff526e8b6, !- Sunday Schedule:Day Name
  14aa4d80-26d4-4771-868f-941b3c087586, !- Monday Schedule:Day Name
  b63e6846-f359-47af-a89a-5352c8944126, !- Tuesday Schedule:Day Name
  51b6eda7-064c-4040-bc7e-150ffd9d1271, !- Wednesday Schedule:Day Name
  faa2c348-37ea-4b6f-ad56-944efc1aff85, !- Thursday Schedule:Day Name
  bd4c6bbf-2de1-433a-93c3-e7a14e7e761c, !- Friday Schedule:Day Name
  3a52997c-606a-435c-bc36-1e181a4d8638, !- Saturday Schedule:Day Name
  06920860-7269-4281-9f02-e85ff526e8b6, !- Holiday Schedule:Day Name
  06920860-7269-4281-9f02-e85ff526e8b6, !- SummerDesignDay Schedule:Day Name
  06920860-7269-4281-9f02-e85ff526e8b6, !- WinterDesignDay Schedule:Day Name
  06920860-7269-4281-9f02-e85ff526e8b6, !- CustomDay1 Schedule:Day Name
  06920860-7269-4281-9f02-e85ff526e8b6; !- CustomDay2 Schedule:Day Name

Schedule:Week:Daily, GlobalCO2_3,
  a12cfd09-b737-4a7a-b56b-aca166c00a01, !- Sunday Schedule:Day Name
  16794170-7b28-4429-9ffe-b0477a9d3c2d, !- Monday Schedule:Day Name
  1c3d206f-ce83-49ee-9c4f-13eb9b864d22, !- Tuesday Schedule:Day Name
  8a5a2539-d2a4-46bd-95e6-29854914538d, !- Wednesday Schedule:Day Name
  d2ac8b2f-5683-40ba-8e47-f5f3173ad32a, !- Thursday Schedule:Day Name
  9d7dddaa-2c0b-4d29-9419-3460aaae0584, !- Friday Schedule:Day Name
  74a6092b-e6b7-4edc-ad60-b4f146b191a2, !- Saturday Schedule:Day Name
  a12cfd09-b737-4a7a-b56b-aca166c00a01, !- Holiday Schedule:Day Name
  a12cfd09-b737-4a7a-b56b-aca166c00a01, !- SummerDesignDay Schedule:Day Name
  a12cfd09-b737-4a7a-b56b-aca166c00a01, !- WinterDesignDay Schedule:Day Name
  a12cfd09-b737-4a7a-b56b-aca166c00a01, !- CustomDay1 Schedule:Day Name
  a12cfd09-b737-4a7a-b56b-aca166c00a01; !- CustomDay2 Schedule:Day Name

Schedule:Week:Daily, GlobalCO2_4,
  9801fe02-073e-487a-98b8-f41d66d2738e, !- Sunday Schedule:Day Name
  f49c1789-452d-4f4a-8b17-1a343262ddfb, !- Monday Schedule:Day Name
  e3887b56-b607-4f7b-9642-58c29c48bc70, !- Tuesday Schedule:Day Name
  a1528d12-f3db-4c76-aab8-d01f859721ac, !- Wednesday Schedule:Day Name
  5aee304e-f614-4370-8145-80b60b34573d, !- Thursday Schedule:Day Name
  1ce94b9c-d27b-4993-b6a3-5839e187352c, !- Friday Schedule:Day Name
  989262c7-6180-44f8-94ec-4341351aea4a, !- Saturday Schedule:Day Name
  9801fe02-073e-487a-98b8-f41d66d2738e, !- Holiday Schedule:Day Name
  9801fe02-073e-487a-98b8-f41d66d2738e, !- SummerDesignDay Schedule:Day Name
  9801fe02-073e-487a-98b8-f41d66d2738e, !- WinterDesignDay Schedule:Day Name
  9801fe02-073e-487a-98b8-f41d66d2738e, !- CustomDay1 Schedule:Day Name
  9801fe02-073e-487a-98b8-f41d66d2738e; !- CustomDay2 Schedule:Day Name

Schedule:Week:Daily, GlobalCO2_5,
  1b5c0a22-35ba-47e8-823b-7516518e0e19, !- Sunday Schedule:Day Name
  3292d329-cfd3-4e8a-aa78-0a81c9c0cd26, !- Monday Schedule:Day Name
  ffe3b8d8-77c1-4444-b577-736c3c594739, !- Tuesday Schedule:Day Name
  0b17781b-e8f7-427b-83ff-f366c16bab01, !- Wednesday Schedule:Day Name
  633321c3-0333-4aca-a81f-354a7dbe9b68, !- Thursday Schedule:Day Name
  18da8192-6794-4b2c-b69c-2b4a69d6eabb, !- Friday Schedule:Day Name
  c91d8730-ff56-433e-884c-5d3644ed820b, !- Saturday Schedule:Day Name
  1b5c0a22-35ba-47e8-823b-7516518e0e19, !- Holiday Schedule:Day Name
  1b5c0a22-35ba-47e8-823b-7516518e0e19, !- SummerDesignDay Schedule:Day Name
  1b5c0a22-35ba-47e8-823b-7516518e0e19, !- WinterDesignDay Schedule:Day Name
  1b5c0a22-35ba-47e8-823b-7516518e0e19, !- CustomDay1 Schedule:Day Name
  1b5c0a22-35ba-47e8-823b-7516518e0e19; !- CustomDay2 Schedule:Day Name

Schedule:Week:Daily, GlobalCO2_6,
  b790b2c5-d878-4f53-9090-f3a88fa4c5d9, !- Sunday Schedule:Day Name
  ec522b24-5758-4bde-a0e2-30a6e782b783, !- Monday Schedule:Day Name
  dc520dbb-7559-4155-9ae0-4fcff78811b0, !- Tuesday Schedule:Day Name
  76084aa3-4dc8-49ab-b5fb-1ac00281d631, !- Wednesday Schedule:Day Name
  ba8a8ad7-4ee7-471e-b853-12ada14777e9, !- Thursday Schedule:Day Name
  426b88a4-9ff8-4bc8-ad5d-b87382b094c6, !- Friday Schedule:Day Name
  426b88a4-9ff8-4bc8-ad5d-b87382b094c6, !- Saturday Schedule:Day Name
  b790b2c5-d878-4f53-9090-f3a88fa4c5d9, !- Holiday Schedule:Day Name
  b790b2c5-d878-4f53-9090-f3a88fa4c5d9, !- SummerDesignDay Schedule:Day Name
  b790b2c5-d878-4f53-9090-f3a88fa4c5d9, !- WinterDesignDay Schedule:Day Name
  b790b2c5-d878-4f53-9090-f3a88fa4c5d9, !- CustomDay1 Schedule:Day Name
  b790b2c5-d878-4f53-9090-f3a88fa4c5d9; !- CustomDay2 Schedule:Day Name

Schedule:Week:Daily, GlobalCO2_7,
  22744959-2a7b-4481-a90d-4c45b49d346b, !- Sunday Schedule:Day Name
  518c71ef-576d-4866-8448-288decbea279, !- Monday Schedule:Day Name
  988a08af-f1ed-43dd-ae12-e34762ce20de, !- Tuesday Schedule:Day Name
  90ff844e-c3ca-4357-b871-8e50611d2c3d, !- Wednesday Schedule:Day Name
  90ff844e-c3ca-4357-b871-8e50611d2c3d, !- Thursday Schedule:Day Name
  60eeee28-0358-4501-9f7f-1ec0d0beb9e2, !- Friday Schedule:Day Name
  87ad1da7-06d4-4696-9e8c-e0513b14355f, !- Saturday Schedule:Day Name
  22744959-2a7b-4481-a90d-4c45b49d346b, !- Holiday Schedule:Day Name
  22744959-2a7b-4481-a90d-4c45b49d346b, !- SummerDesignDay Schedule:Day Name
  22744959-2a7b-4481-a90d-4c45b49d346b, !- WinterDesignDay Schedule:Day Name
  22744959-2a7b-4481-a90d-4c45b49d346b, !- CustomDay1 Schedule:Day Name
  22744959-2a7b-4481-a90d-4c45b49d346b; !- CustomDay2 Schedule:Day Name

Schedule:Week:Daily, GlobalCO2_8,
  87ad1da7-06d4-4696-9e8c-e0513b14355f, !- Sunday Schedule:Day Name
  dd81eb34-6018-4b48-8ee8-2bb10b116720, !- Monday Schedule:Day Name
  d99f43e1-50da-42d3-b439-249795257bcc, !- Tuesday Schedule:Day Name
  682bf2d4-337d-4e32-87d1-833225cb54dd, !- Wednesday Schedule:Day Name
  336d8257-c245-4742-b62d-a8ed95a270c6, !- Thursday Schedule:Day Name
  2b6d8baa-189e-40f1-9ac8-fa927962cb72, !- Friday Schedule:Day Name
  d979f68d-73e2-47c7-a26b-26cb3fe0c480, !- Saturday Schedule:Day Name
  87ad1da7-06d4-4696-9e8c-e0513b14355f, !- Holiday Schedule:Day Name
  87ad1da7-06d4-4696-9e8c-e0513b14355f, !- SummerDesignDay Schedule:Day Name
  87ad1da7-06d4-4696-9e8c-e0513b14355f, !- WinterDesignDay Schedule:Day Name
  87ad1da7-06d4-4696-9e8c-e0513b14355f, !- CustomDay1 Schedule:Day Name
  87ad1da7-06d4-4696-9e8c-e0513b14355f; !- CustomDay2 Schedule:Day Name

Schedule:Week:Daily, GlobalCO2_9,
  e79251cc-e5a6-4b1c-916f-2c133997457f, !- Sunday Schedule:Day Name
  05d99482-faa4-46d9-b923-9a093c2bc1ca, !- Monday Schedule:Day Name
  e8eafefb-ae4c-49e7-a3c8-97ccd4a3dc23, !- Tuesday Schedule:Day Name
  a817ba09-2ef8-4c33-998a-2b836d196e8d, !- Wednesday Schedule:Day Name
  343ff936-97b4-4773-9a62-65ee19ca271f, !- Thursday Schedule:Day Name
  de18b61b-9ff9-4d7d-b237-bd685cb3f15c, !- Friday Schedule:Day Name
  b5e4381c-dd91-4367-b41d-4eca121e1e97, !- Saturday Schedule:Day Name
  e79251cc-e5a6-4b1c-916f-2c133997457f, !- Holiday Schedule:Day Name
  e79251cc-e5a6-4b1c-916f-2c133997457f, !- SummerDesignDay Schedule:Day Name
  e79251cc-e5a6-4b1c-916f-2c133997457f, !- WinterDesignDay Schedule:Day Name
  e79251cc-e5a6-4b1c-916f-2c133997457f, !- CustomDay1 Schedule:Day Name
  e79251cc-e5a6-4b1c-916f-2c133997457f; !- CustomDay2 Schedule:Day Name

Schedule:Week:Daily, GlobalCO2_10,
  96be91c7-29cf-4b29-8cbe-9aef71dd27ef, !- Sunday Schedule:Day Name
  aa35dbfc-abbe-4a40-b753-70c1b560677d, !- Monday Schedule:Day Name
  30da9883-1a3e-4b3f-b968-eb1a05b71228, !- Tuesday Schedule:Day Name
  0c0e397e-0f91-45c5-aabc-86aeda962daf, !- Wednesday Schedule:Day Name
  ab151035-3a04-43aa-8559-1852aa3491ee, !- Thursday Schedule:Day Name
  a520c4f4-084f-478d-a391-7e1d651f9701, !- Friday Schedule:Day Name
  96461051-127b-4625-8da1-1dff3a59beaa, !- Saturday Schedule:Day Name
  96be91c7-29cf-4b29-8cbe-9aef71dd27ef, !- Holiday Schedule:Day Name
  96be91c7-29cf-4b29-8cbe-9aef71dd27ef, !- SummerDesignDay Schedule:Day Name
  96be91c7-29cf-4b29-8cbe-9aef71dd27ef, !- WinterDesignDay Schedule:Day Name
  96be91c7-29cf-4b29-8cbe-9aef71dd27ef, !- CustomDay1 Schedule:Day Name
  96be91c7-29cf-4b29-8cbe-9aef71dd27ef; !- CustomDay2 Schedule:Day Name

Schedule:Week:Daily, GlobalCO2_11,
  8aba5376-33bf-4b00-b305-2ea7ed072602, !- Sunday Schedule:Day Name
  1eb98c09-d7fb-4e7b-9605-9e6215ea86b4, !- Monday Schedule:Day Name
  0d7f7dc3-7bc1-40bb-aab2-36eca7f2b691, !- Tuesday Schedule:Day Name
  516e14bd-7f60-42d1-8a10-592aad73d1d5, !- Wednesday Schedule:Day Name
  47a5fd02-9b1d-415c-990a-4f316f435f3f, !- Thursday Schedule:Day Name
  2512d2d9-56f4-4696-b27a-98b45557fd22, !- Friday Schedule:Day Name
  5c564b72-0246-42d2-b091-5abf47f92b17, !- Saturday Schedule:Day Name
  8aba5376-33bf-4b00-b305-2ea7ed072602, !- Holiday Schedule:Day Name
  8aba5376-33bf-4b00-b305-2ea7ed072602, !- SummerDesignDay Schedule:Day Name
  8aba5376-33bf-4b00-b305-2ea7ed072602, !- WinterDesignDay Schedule:Day Name
  8aba5376-33bf-4b00-b305-2ea7ed072602, !- CustomDay1 Schedule:Day Name
  8aba5376-33bf-4b00-b305-2ea7ed072602; !- CustomDay2 Schedule:Day Name

Schedule:Week:Daily, GlobalCO2_12,
  68d7f910-1b97-4915-89b1-a1083250c5c3, !- Sunday Schedule:Day Name
  efe045b8-ed66-438e-b707-c02703069c34, !- Monday Schedule:Day Name
  1ad7a10e-8d36-4ef6-ad3e-086bb5ed59a1, !- Tuesday Schedule:Day Name
  5c9dc787-0919-41eb-b5c1-a43dab6559a7, !- Wednesday Schedule:Day Name
  527e95f2-cba4-4689-b1c1-8d421924894d, !- Thursday Schedule:Day Name
  ca370dbc-f888-4e9a-856c-a39386bb94b9, !- Friday Schedule:Day Name
  bc080fa9-a52e-451d-93a4-456b5bf12671, !- Saturday Schedule:Day Name
  68d7f910-1b97-4915-89b1-a1083250c5c3, !- Holiday Schedule:Day Name
  68d7f910-1b97-4915-89b1-a1083250c5c3, !- SummerDesignDay Schedule:Day Name
  68d7f910-1b97-4915-89b1-a1083250c5c3, !- WinterDesignDay Schedule:Day Name
  68d7f910-1b97-4915-89b1-a1083250c5c3, !- CustomDay1 Schedule:Day Name
  68d7f910-1b97-4915-89b1-a1083250c5c3; !- CustomDay2 Schedule:Day Name

Schedule:Week:Daily, GlobalCO2_13,
  1681bd8e-0515-4057-9ea1-420ca3bbca1b, !- Sunday Schedule:Day Name
  def090e7-0b81-4d98-9791-9258bd9565d3, !- Monday Schedule:Day Name
  3551554e-2545-4269-89fb-addace2f7198, !- Tuesday Schedule:Day Name
  6f72b99e-acd5-4d1d-b3e2-4340a1c84f4d, !- Wednesday Schedule:Day Name
  97997443-9bf1-4f1c-94b5-afa246e5600b, !- Thursday Schedule:Day Name
  baaec954-7fd8-41c0-9ee0-3e8665719d11, !- Friday Schedule:Day Name
  d6830e18-1e93-4f3c-92ad-5f27ac7362b1, !- Saturday Schedule:Day Name
  1681bd8e-0515-4057-9ea1-420ca3bbca1b, !- Holiday Schedule:Day Name
  1681bd8e-0515-4057-9ea1-420ca3bbca1b, !- SummerDesignDay Schedule:Day Name
  1681bd8e-0515-4057-9ea1-420ca3bbca1b, !- WinterDesignDay Schedule:Day Name
  1681bd8e-0515-4057-9ea1-420ca3bbca1b, !- CustomDay1 Schedule:Day Name
  1681bd8e-0515-4057-9ea1-420ca3bbca1b; !- CustomDay2 Schedule:Day Name

Schedule:Week:Daily, GlobalCO2_14,
  35389261-06b6-43a7-8ce6-6e44f4d7aa59, !- Sunday Schedule:Day Name
  a3931ba7-fc0a-47c3-b4dd-7ce8515b89f8, !- Monday Schedule:Day Name
  a27cd3bf-f737-4e7c-a46a-201ce65565c1, !- Tuesday Schedule:Day Name
  7c99650d-ec04-4270-a0c0-14a6e9a5f296, !- Wednesday Schedule:Day Name
  e2e5520d-9761-45d7-a62b-a3f0fc2b4470, !- Thursday Schedule:Day Name
  57c6b555-916e-4d8c-a4c3-531f8edb76ae, !- Friday Schedule:Day Name
  be0ea864-ff46-4be2-bce1-6a5d0eaec933, !- Saturday Schedule:Day Name
  35389261-06b6-43a7-8ce6-6e44f4d7aa59, !- Holiday Schedule:Day Name
  35389261-06b6-43a7-8ce6-6e44f4d7aa59, !- SummerDesignDay Schedule:Day Name
  35389261-06b6-43a7-8ce6-6e44f4d7aa59, !- WinterDesignDay Schedule:Day Name
  35389261-06b6-43a7-8ce6-6e44f4d7aa59, !- CustomDay1 Schedule:Day Name
  35389261-06b6-43a7-8ce6-6e44f4d7aa59; !- CustomDay2 Schedule:Day Name

Schedule:Week:Daily, GlobalCO2_15,
  0420776e-2d09-44cf-98c3-583d9403fee3, !- Sunday Schedule:Day Name
  50c69357-c0a7-4cba-9ab4-79a685b5e640, !- Monday Schedule:Day Name
  9487853b-6e22-4aab-adad-b7f84c8b466c, !- Tuesday Schedule:Day Name
  56f0a9f1-be58-4628-86d3-c1c418595744, !- Wednesday Schedule:Day Name
  570b5aaf-cd57-4d28-b799-57645d608ce2, !- Thursday Schedule:Day Name
  33235a87-bf5b-486b-9038-4b30202aafe4, !- Friday Schedule:Day Name
  bcef65c2-2226-4f1c-ba4f-1009a64f3a59, !- Saturday Schedule:Day Name
  0420776e-2d09-44cf-98c3-583d9403fee3, !- Holiday Schedule:Day Name
  0420776e-2d09-44cf-98c3-583d9403fee3, !- SummerDesignDay Schedule:Day Name
  0420776e-2d09-44cf-98c3-583d9403fee3, !- WinterDesignDay Schedule:Day Name
  0420776e-2d09-44cf-98c3-583d9403fee3, !- CustomDay1 Schedule:Day Name
  0420776e-2d09-44cf-98c3-583d9403fee3; !- CustomDay2 Schedule:Day Name

Schedule:Week:Daily, GlobalCO2_16,
  6ab16a15-e68b-49e7-abf4-235536c08d8a, !- Sunday Schedule:Day Name
  ec290726-49bb-43ab-97b4-ee5438ad7303, !- Monday Schedule:Day Name
  e956c6b6-058c-4ae2-9a64-3988d7a1112c, !- Tuesday Schedule:Day Name
  d02f64c6-bdcd-4369-9a86-ea7bb9ad1e3a, !- Wednesday Schedule:Day Name
  052879d7-28fd-4ada-a221-c114be4e9498, !- Thursday Schedule:Day Name
  8b51dc49-63af-407c-964b-3f79d16e39f7, !- Friday Schedule:Day Name
  968fd929-3ebe-44bd-bcac-ef2ad74f5a3b, !- Saturday Schedule:Day Name
  6ab16a15-e68b-49e7-abf4-235536c08d8a, !- Holiday Schedule:Day Name
  6ab16a15-e68b-49e7-abf4-235536c08d8a, !- SummerDesignDay Schedule:Day Name
  6ab16a15-e68b-49e7-abf4-235536c08d8a, !- WinterDesignDay Schedule:Day Name
  6ab16a15-e68b-49e7-abf4-235536c08d8a, !- CustomDay1 Schedule:Day Name
  6ab16a15-e68b-49e7-abf4-235536c08d8a; !- CustomDay2 Schedule:Day Name

Schedule:Week:Daily, GlobalCO2_17,
  370dda73-e219-4edb-bab7-05f108de0f32, !- Sunday Schedule:Day Name
  bee0c9da-84e1-4433-939d-3d78747a36cc, !- Monday Schedule:Day Name
  0beb00ba-91f0-4771-9e20-8b6ebaa47fb7, !- Tuesday Schedule:Day Name
  5d2388bd-f78f-414e-992f-77227fb240bd, !- Wednesday Schedule:Day Name
  d316f06b-4c56-46f7-a76d-89dbe6e18b08, !- Thursday Schedule:Day Name
  d316f06b-4c56-46f7-a76d-89dbe6e18b08, !- Friday Schedule:Day Name
  d316f06b-4c56-46f7-a76d-89dbe6e18b08, !- Saturday Schedule:Day Name
  370dda73-e219-4edb-bab7-05f108de0f32, !- Holiday Schedule:Day Name
  370dda73-e219-4edb-bab7-05f108de0f32, !- SummerDesignDay Schedule:Day Name
  370dda73-e219-4edb-bab7-05f108de0f32, !- WinterDesignDay Schedule:Day Name
  370dda73-e219-4edb-bab7-05f108de0f32, !- CustomDay1 Schedule:Day Name
  370dda73-e219-4edb-bab7-05f108de0f32; !- CustomDay2 Schedule:Day Name

Schedule:Week:Daily, GlobalCO2_18,
  d316f06b-4c56-46f7-a76d-89dbe6e18b08, !- Sunday Schedule:Day Name
  d316f06b-4c56-46f7-a76d-89dbe6e18b08, !- Monday Schedule:Day Name
  f9095ee1-3bf0-4a5e-b45d-a2e0ac1836a7, !- Tuesday Schedule:Day Name
  0beb00ba-91f0-4771-9e20-8b6ebaa47fb7, !- Wednesday Schedule:Day Name
  0beb00ba-91f0-4771-9e20-8b6ebaa47fb7, !- Thursday Schedule:Day Name
  09c3e794-6685-40d4-8e15-2dda9e8cea30, !- Friday Schedule:Day Name
  459c8cc7-7794-4f1c-aceb-53284d46481f, !- Saturday Schedule:Day Name
  d316f06b-4c56-46f7-a76d-89dbe6e18b08, !- Holiday Schedule:Day Name
  d316f06b-4c56-46f7-a76d-89dbe6e18b08, !- SummerDesignDay Schedule:Day Name
  d316f06b-4c56-46f7-a76d-89dbe6e18b08, !- WinterDesignDay Schedule:Day Name
  d316f06b-4c56-46f7-a76d-89dbe6e18b08, !- CustomDay1 Schedule:Day Name
  d316f06b-4c56-46f7-a76d-89dbe6e18b08; !- CustomDay2 Schedule:Day Name

Schedule:Week:Daily, GlobalCO2_19,
  8b51dc49-63af-407c-964b-3f79d16e39f7, !- Sunday Schedule:Day Name
  1a31a0f7-0d48-42be-b4a5-af5959c45aae, !- Monday Schedule:Day Name
  191b6aa3-edf9-42a3-8d7d-dff0bbcca632, !- Tuesday Schedule:Day Name
  78ecff63-6838-43a5-b247-cc8b88a2da0d, !- Wednesday Schedule:Day Name
  c887d628-fbaf-44df-b929-1e21e12c6f65, !- Thursday Schedule:Day Name
  3ff39d8e-1011-4b36-bee6-376bd578b081, !- Friday Schedule:Day Name
  73247325-f0f5-4632-bd7c-f79b518b8f55, !- Saturday Schedule:Day Name
  8b51dc49-63af-407c-964b-3f79d16e39f7, !- Holiday Schedule:Day Name
  8b51dc49-63af-407c-964b-3f79d16e39f7, !- SummerDesignDay Schedule:Day Name
  8b51dc49-63af-407c-964b-3f79d16e39f7, !- WinterDesignDay Schedule:Day Name
  8b51dc49-63af-407c-964b-3f79d16e39f7, !- CustomDay1 Schedule:Day Name
  8b51dc49-63af-407c-964b-3f79d16e39f7; !- CustomDay2 Schedule:Day Name

Schedule:Week:Daily, GlobalCO2_20,
  85a47f38-1b79-4e81-8ac2-f7c3e488cff1, !- Sunday Schedule:Day Name
  0714c782-61f4-4a32-bd8f-88f4b7c270c6, !- Monday Schedule:Day Name
  b9635305-faa8-46d3-8209-583234b7b7f6, !- Tuesday Schedule:Day Name
  e88b3c77-5ee8-4bd6-9098-6645500312d6, !- Wednesday Schedule:Day Name
  42027279-8f08-4b62-a95c-42e055bf7ad1, !- Thursday Schedule:Day Name
  211e259d-26f4-47fa-bea5-24a9ae6114aa, !- Friday Schedule:Day Name
  8da5a336-6e97-43c9-8831-a1ada28b9142, !- Saturday Schedule:Day Name
  85a47f38-1b79-4e81-8ac2-f7c3e488cff1, !- Holiday Schedule:Day Name
  85a47f38-1b79-4e81-8ac2-f7c3e488cff1, !- SummerDesignDay Schedule:Day Name
  85a47f38-1b79-4e81-8ac2-f7c3e488cff1, !- WinterDesignDay Schedule:Day Name
  85a47f38-1b79-4e81-8ac2-f7c3e488cff1, !- CustomDay1 Schedule:Day Name
  85a47f38-1b79-4e81-8ac2-f7c3e488cff1; !- CustomDay2 Schedule:Day Name

Schedule:Week:Daily, GlobalCO2_21,
  3bd8b7d9-82db-4a3b-96e2-04b835bdb283, !- Sunday Schedule:Day Name
  4f5c6eed-0cab-4e0c-8664-c9ec7fc9a7e1, !- Monday Schedule:Day Name
  8f3ea8f9-d93d-4665-9dcf-65ebdb2c0e08, !- Tuesday Schedule:Day Name
  4d2a22f5-abf2-42d2-b7d7-0806c72834f0, !- Wednesday Schedule:Day Name
  3643127f-1097-4666-9420-22935f176c05, !- Thursday Schedule:Day Name
  0e7c9ef6-cd52-44b4-ac35-251c35f2a185, !- Friday Schedule:Day Name
  414e36e9-15e9-414b-908b-90c1a80258a6, !- Saturday Schedule:Day Name
  3bd8b7d9-82db-4a3b-96e2-04b835bdb283, !- Holiday Schedule:Day Name
  3bd8b7d9-82db-4a3b-96e2-04b835bdb283, !- SummerDesignDay Schedule:Day Name
  3bd8b7d9-82db-4a3b-96e2-04b835bdb283, !- WinterDesignDay Schedule:Day Name
  3bd8b7d9-82db-4a3b-96e2-04b835bdb283, !- CustomDay1 Schedule:Day Name
  3bd8b7d9-82db-4a3b-96e2-04b835bdb283; !- CustomDay2 Schedule:Day Name

Schedule:Week:Daily, GlobalCO2_22,
  d92cf09c-a0e8-44ed-842e-ec814eccd803, !- Sunday Schedule:Day Name
  efcc6d4f-f6c4-4195-b1c2-79f6213eacfc, !- Monday Schedule:Day Name
  27174a66-7d94-4037-9972-b412fabb5dba, !- Tuesday Schedule:Day Name
  eabe49ea-34a9-4858-85a4-6bd33615d45a, !- Wednesday Schedule:Day Name
  2e5f14b5-c3e1-4ca3-b482-6570389ce667, !- Thursday Schedule:Day Name
  7c62925b-f7b7-4f10-b995-c56ee0f096b7, !- Friday Schedule:Day Name
  16a76cf1-b69a-44b2-bbbc-05ef6573ce19, !- Saturday Schedule:Day Name
  d92cf09c-a0e8-44ed-842e-ec814eccd803, !- Holiday Schedule:Day Name
  d92cf09c-a0e8-44ed-842e-ec814eccd803, !- SummerDesignDay Schedule:Day Name
  d92cf09c-a0e8-44ed-842e-ec814eccd803, !- WinterDesignDay Schedule:Day Name
  d92cf09c-a0e8-44ed-842e-ec814eccd803, !- CustomDay1 Schedule:Day Name
  d92cf09c-a0e8-44ed-842e-ec814eccd803; !- CustomDay2 Schedule:Day Name

Schedule:Week:Daily, GlobalCO2_23,
  adfde6a7-07d3-4b15-87c4-f03199d51563, !- Sunday Schedule:Day Name
  ccaf9653-a8b1-4776-b838-916f96d08b30, !- Monday Schedule:Day Name
  90f93fbb-bcde-4cce-b0b7-65759f9883fb, !- Tuesday Schedule:Day Name
  4b1f0eb3-4978-45ef-ac1b-2bc1ccdee275, !- Wednesday Schedule:Day Name
  bf4a2305-2717-4905-9a72-fb097eb76358, !- Thursday Schedule:Day Name
  dae7adea-5c85-46b2-8757-576aeec57067, !- Friday Schedule:Day Name
  c5356536-4c4a-4b12-992a-687f14f2bf67, !- Saturday Schedule:Day Name
  adfde6a7-07d3-4b15-87c4-f03199d51563, !- Holiday Schedule:Day Name
  adfde6a7-07d3-4b15-87c4-f03199d51563, !- SummerDesignDay Schedule:Day Name
  adfde6a7-07d3-4b15-87c4-f03199d51563, !- WinterDesignDay Schedule:Day Name
  adfde6a7-07d3-4b15-87c4-f03199d51563, !- CustomDay1 Schedule:Day Name
  adfde6a7-07d3-4b15-87c4-f03199d51563; !- CustomDay2 Schedule:Day Name

Schedule:Week:Daily, GlobalCO2_24,
  315b8d83-f2a7-44ff-80d1-2262616d955e, !- Sunday Schedule:Day Name
  a6d82a28-9e5f-497d-88de-4abd1c3d4af9, !- Monday Schedule:Day Name
  1f96e7ff-2a53-454e-916d-260da3af90fa, !- Tuesday Schedule:Day Name
  e6603505-671c-4fc3-adcc-c2fc132d2d38, !- Wednesday Schedule:Day Name
  64dbda41-4ad8-4444-ab66-a810e23fe5aa, !- Thursday Schedule:Day Name
  82ce96a7-2dbb-4e63-b8d8-d9982775b386, !- Friday Schedule:Day Name
  2aa921b5-0da4-4948-ad79-a734544fdf78, !- Saturday Schedule:Day Name
  315b8d83-f2a7-44ff-80d1-2262616d955e, !- Holiday Schedule:Day Name
  315b8d83-f2a7-44ff-80d1-2262616d955e, !- SummerDesignDay Schedule:Day Name
  315b8d83-f2a7-44ff-80d1-2262616d955e, !- WinterDesignDay Schedule:Day Name
  315b8d83-f2a7-44ff-80d1-2262616d955e, !- CustomDay1 Schedule:Day Name
  315b8d83-f2a7-44ff-80d1-2262616d955e; !- CustomDay2 Schedule:Day Name

Schedule:Week:Daily, GlobalCO2_25,
  975b5be2-2d53-445a-9a46-68faee9ab7cb, !- Sunday Schedule:Day Name
  480a5d95-e602-4173-ba1c-d5a0c309cffa, !- Monday Schedule:Day Name
  cca3f448-5501-40f4-a487-ef2a3e29b0ab, !- Tuesday Schedule:Day Name
  820bd996-0b60-4ca3-b5ba-d0eecff2f4b9, !- Wednesday Schedule:Day Name
  10cac3c2-19b1-4014-899a-c1e1d1674bb6, !- Thursday Schedule:Day Name
  b6a4e4c9-1f8b-466d-9246-d3b941e84232, !- Friday Schedule:Day Name
  b8e4f2c5-9ee1-4f9d-a334-7cd2405d71c1, !- Saturday Schedule:Day Name
  975b5be2-2d53-445a-9a46-68faee9ab7cb, !- Holiday Schedule:Day Name
  975b5be2-2d53-445a-9a46-68faee9ab7cb, !- SummerDesignDay Schedule:Day Name
  975b5be2-2d53-445a-9a46-68faee9ab7cb, !- WinterDesignDay Schedule:Day Name
  975b5be2-2d53-445a-9a46-68faee9ab7cb, !- CustomDay1 Schedule:Day Name
  975b5be2-2d53-445a-9a46-68faee9ab7cb; !- CustomDay2 Schedule:Day Name

Schedule:Week:Daily, GlobalCO2_26,
  9745081f-eefb-450c-ac34-1fd90ce6b616, !- Sunday Schedule:Day Name
  1af2002e-d290-46f7-86e3-af4b7aadb3d1, !- Monday Schedule:Day Name
  ed3639c9-477c-4cb3-a41c-8932a3c5a1b9, !- Tuesday Schedule:Day Name
  9dcde541-d7ce-4b28-b9e2-bc2298b22019, !- Wednesday Schedule:Day Name
  d4c6e868-3412-479f-83e3-14267c448570, !- Thursday Schedule:Day Name
  7804bc1e-31b2-48b9-89da-f29bc904ca0d, !- Friday Schedule:Day Name
  f3815885-2b57-41fd-bf81-67fe9b5eef8e, !- Saturday Schedule:Day Name
  9745081f-eefb-450c-ac34-1fd90ce6b616, !- Holiday Schedule:Day Name
  9745081f-eefb-450c-ac34-1fd90ce6b616, !- SummerDesignDay Schedule:Day Name
  9745081f-eefb-450c-ac34-1fd90ce6b616, !- WinterDesignDay Schedule:Day Name
  9745081f-eefb-450c-ac34-1fd90ce6b616, !- CustomDay1 Schedule:Day Name
  9745081f-eefb-450c-ac34-1fd90ce6b616; !- CustomDay2 Schedule:Day Name

Schedule:Week:Daily, GlobalCO2_27,
  c2d30c8a-8d5a-4a61-89f9-65e306e7b7da, !- Sunday Schedule:Day Name
  3c91c704-d0e8-4744-b965-d8064f22eb87, !- Monday Schedule:Day Name
  5643e49a-8b09-4c6b-94bb-70765b6ce189, !- Tuesday Schedule:Day Name
  c6dd56aa-17bc-48c2-af09-21743eaf3c56, !- Wednesday Schedule:Day Name
  f175a81b-297c-4034-9966-d8cb5762a744, !- Thursday Schedule:Day Name
  451d6cea-ab9f-4dbb-8582-f3d605846f44, !- Friday Schedule:Day Name
  c7c4cc74-4fb9-438d-a886-3b42dcad8a0a, !- Saturday Schedule:Day Name
  c2d30c8a-8d5a-4a61-89f9-65e306e7b7da, !- Holiday Schedule:Day Name
  c2d30c8a-8d5a-4a61-89f9-65e306e7b7da, !- SummerDesignDay Schedule:Day Name
  c2d30c8a-8d5a-4a61-89f9-65e306e7b7da, !- WinterDesignDay Schedule:Day Name
  c2d30c8a-8d5a-4a61-89f9-65e306e7b7da, !- CustomDay1 Schedule:Day Name
  c2d30c8a-8d5a-4a61-89f9-65e306e7b7da; !- CustomDay2 Schedule:Day Name

Schedule:Week:Daily, GlobalCO2_28,
  86f2c378-3da5-4705-89a3-b5363ad2a282, !- Sunday Schedule:Day Name
  4da2eeae-dbe6-4ac4-a094-ba7bc4119370, !- Monday Schedule:Day Name
  b970622f-bd2b-429f-b0b8-1405fabcb1ce, !- Tuesday Schedule:Day Name
  3593aa8d-ba46-4210-894e-20553023eaef, !- Wednesday Schedule:Day Name
  3f60180c-4c51-4a95-b229-ede7ed70a9e0, !- Thursday Schedule:Day Name
  a0fd5acb-cdfb-4fc6-a1bb-096afddcf203, !- Friday Schedule:Day Name
  7f2c2d47-8b76-47dc-9126-f80c424e34c5, !- Saturday Schedule:Day Name
  86f2c378-3da5-4705-89a3-b5363ad2a282, !- Holiday Schedule:Day Name
  86f2c378-3da5-4705-89a3-b5363ad2a282, !- SummerDesignDay Schedule:Day Name
  86f2c378-3da5-4705-89a3-b5363ad2a282, !- WinterDesignDay Schedule:Day Name
  86f2c378-3da5-4705-89a3-b5363ad2a282, !- CustomDay1 Schedule:Day Name
  86f2c378-3da5-4705-89a3-b5363ad2a282; !- CustomDay2 Schedule:Day Name

Schedule:Week:Daily, GlobalCO2_29,
  1d6ee06d-6a0a-4101-bfc0-0462b49a75d6, !- Sunday Schedule:Day Name
  b11042ae-a6a2-41eb-b143-728ca3728d43, !- Monday Schedule:Day Name
  6e71b662-6036-4ac5-b6b4-bceb128b060a, !- Tuesday Schedule:Day Name
  53fb68e9-1f49-4a11-b527-680759a3b435, !- Wednesday Schedule:Day Name
  d8d4321a-aa61-4cd4-b529-85ae5da162ba, !- Thursday Schedule:Day Name
  273e6706-5ba5-4d85-9ed9-b628c3251533, !- Friday Schedule:Day Name
  f5a3ae25-7e4f-4976-8dd2-d5555c777d54, !- Saturday Schedule:Day Name
  1d6ee06d-6a0a-4101-bfc0-0462b49a75d6, !- Holiday Schedule:Day Name
  1d6ee06d-6a0a-4101-bfc0-0462b49a75d6, !- SummerDesignDay Schedule:Day Name
  1d6ee06d-6a0a-4101-bfc0-0462b49a75d6, !- WinterDesignDay Schedule:Day Name
  1d6ee06d-6a0a-4101-bfc0-0462b49a75d6, !- CustomDay1 Schedule:Day Name
  1d6ee06d-6a0a-4101-bfc0-0462b49a75d6; !- CustomDay2 Schedule:Day Name

Schedule:Week:Daily, GlobalCO2_30,
  8329c600-ef2c-4793-85c7-bb4e72923ffd, !- Sunday Schedule:Day Name
  ff2129d5-0d5b-4815-8d3d-4c59fcd76fab, !- Monday Schedule:Day Name
  333ac42d-b95d-40c9-a499-1c33071ed859, !- Tuesday Schedule:Day Name
  07598d24-df72-4c85-8a80-a6928ca3b442, !- Wednesday Schedule:Day Name
  96097845-0df5-45c3-b603-0c9714b57dcc, !- Thursday Schedule:Day Name
  56265f85-17cf-4ae1-a066-c295a78f0e16, !- Friday Schedule:Day Name
  b32dcee4-5b85-43f3-8570-115234f62aab, !- Saturday Schedule:Day Name
  8329c600-ef2c-4793-85c7-bb4e72923ffd, !- Holiday Schedule:Day Name
  8329c600-ef2c-4793-85c7-bb4e72923ffd, !- SummerDesignDay Schedule:Day Name
  8329c600-ef2c-4793-85c7-bb4e72923ffd, !- WinterDesignDay Schedule:Day Name
  8329c600-ef2c-4793-85c7-bb4e72923ffd, !- CustomDay1 Schedule:Day Name
  8329c600-ef2c-4793-85c7-bb4e72923ffd; !- CustomDay2 Schedule:Day Name

Schedule:Week:Daily, GlobalCO2_31,
  6a87733a-878f-46bc-bcf3-99e0c41b3a89, !- Sunday Schedule:Day Name
  32caa985-18f8-46ff-9ac5-61871052bdc9, !- Monday Schedule:Day Name
  b77b5c81-dea9-4b90-8c7e-178cb9bfabb3, !- Tuesday Schedule:Day Name
  79313604-1808-4e27-90c0-478ed630695d, !- Wednesday Schedule:Day Name
  1c3aba0e-c597-4920-83d7-19a4f73a46bc, !- Thursday Schedule:Day Name
  dbf12901-663a-4ffc-aa46-9956db9eda2c, !- Friday Schedule:Day Name
  5290eff6-8978-4da4-aafa-64619f5d1a7a, !- Saturday Schedule:Day Name
  6a87733a-878f-46bc-bcf3-99e0c41b3a89, !- Holiday Schedule:Day Name
  6a87733a-878f-46bc-bcf3-99e0c41b3a89, !- SummerDesignDay Schedule:Day Name
  6a87733a-878f-46bc-bcf3-99e0c41b3a89, !- WinterDesignDay Schedule:Day Name
  6a87733a-878f-46bc-bcf3-99e0c41b3a89, !- CustomDay1 Schedule:Day Name
  6a87733a-878f-46bc-bcf3-99e0c41b3a89; !- CustomDay2 Schedule:Day Name

Schedule:Week:Daily, GlobalCO2_32,
  488b3c79-1578-4a9d-a583-758f89477d0e, !- Sunday Schedule:Day Name
  d5502846-3ef1-4e87-9248-eb98527c227c, !- Monday Schedule:Day Name
  6e1b3b4c-f60b-44f6-80e2-ecd81fd4f941, !- Tuesday Schedule:Day Name
  58588132-8ef6-4efb-84d9-adae43bde581, !- Wednesday Schedule:Day Name
  e91c5b0f-831c-459f-907a-d30b5487924a, !- Thursday Schedule:Day Name
  58916edd-23e6-40c4-b105-999ce95cf22b, !- Friday Schedule:Day Name
  223738c3-c8c4-4a97-b2ca-0b524600a0dd, !- Saturday Schedule:Day Name
  488b3c79-1578-4a9d-a583-758f89477d0e, !- Holiday Schedule:Day Name
  488b3c79-1578-4a9d-a583-758f89477d0e, !- SummerDesignDay Schedule:Day Name
  488b3c79-1578-4a9d-a583-758f89477d0e, !- WinterDesignDay Schedule:Day Name
  488b3c79-1578-4a9d-a583-758f89477d0e, !- CustomDay1 Schedule:Day Name
  488b3c79-1578-4a9d-a583-758f89477d0e; !- CustomDay2 Schedule:Day Name

Schedule:Week:Daily, GlobalCO2_33,
  259b28a4-b002-4bd1-97f5-66cd19b4e9b1, !- Sunday Schedule:Day Name
  70dd5ac2-08bf-48a5-bfea-1365cea18f41, !- Monday Schedule:Day Name
  914c2212-574d-4244-9560-a0428501c489, !- Tuesday Schedule:Day Name
  df7d3be9-87d3-4d74-9e3a-3cd968cc4d21, !- Wednesday Schedule:Day Name
  df7d3be9-87d3-4d74-9e3a-3cd968cc4d21, !- Thursday Schedule:Day Name
  df7d3be9-87d3-4d74-9e3a-3cd968cc4d21, !- Friday Schedule:Day Name
  ed9e8a7a-3f6f-4d1b-b396-6a150c8d229c, !- Saturday Schedule:Day Name
  259b28a4-b002-4bd1-97f5-66cd19b4e9b1, !- Holiday Schedule:Day Name
  259b28a4-b002-4bd1-97f5-66cd19b4e9b1, !- SummerDesignDay Schedule:Day Name
  259b28a4-b002-4bd1-97f5-66cd19b4e9b1, !- WinterDesignDay Schedule:Day Name
  259b28a4-b002-4bd1-97f5-66cd19b4e9b1, !- CustomDay1 Schedule:Day Name
  259b28a4-b002-4bd1-97f5-66cd19b4e9b1; !- CustomDay2 Schedule:Day Name

Schedule:Week:Daily, GlobalCO2_34,
  303c9bbd-bbd1-4319-a375-848a89427c17, !- Sunday Schedule:Day Name
  8ad8d86d-a84a-4698-b034-59a7804b336a, !- Monday Schedule:Day Name
  25150846-167f-4630-8f36-25a710d703b7, !- Tuesday Schedule:Day Name
  a6ce6ac9-f9a0-49d2-8f9d-7051132900f0, !- Wednesday Schedule:Day Name
  0c423099-24b7-4e13-9b45-62a4ead73eeb, !- Thursday Schedule:Day Name
  4f09d5b1-9ad3-45b7-bf0e-8de7583a9567, !- Friday Schedule:Day Name
  aa5ab5b3-032b-4e22-bfec-4505cef02dae, !- Saturday Schedule:Day Name
  303c9bbd-bbd1-4319-a375-848a89427c17, !- Holiday Schedule:Day Name
  303c9bbd-bbd1-4319-a375-848a89427c17, !- SummerDesignDay Schedule:Day Name
  303c9bbd-bbd1-4319-a375-848a89427c17, !- WinterDesignDay Schedule:Day Name
  303c9bbd-bbd1-4319-a375-848a89427c17, !- CustomDay1 Schedule:Day Name
  303c9bbd-bbd1-4319-a375-848a89427c17; !- CustomDay2 Schedule:Day Name

Schedule:Week:Daily, GlobalCO2_35,
  cb10227c-3e3b-4ee5-b133-a03c2a77dee3, !- Sunday Schedule:Day Name
  774c30d4-ca4f-4e1c-97c1-d8f8469eedd9, !- Monday Schedule:Day Name
  ff8e7fff-255e-4334-97b1-46a480edf2ea, !- Tuesday Schedule:Day Name
  697fd295-4dd9-401f-aef7-a4eae91c5fc6, !- Wednesday Schedule:Day Name
  d36a4637-6af0-4796-8bba-79a5649e0a0a, !- Thursday Schedule:Day Name
  90716e7c-3300-463d-a87f-06461df0e55f, !- Friday Schedule:Day Name
  51ffa894-16de-46a2-9d0b-639d6f3cdd95, !- Saturday Schedule:Day Name
  cb10227c-3e3b-4ee5-b133-a03c2a77dee3, !- Holiday Schedule:Day Name
  cb10227c-3e3b-4ee5-b133-a03c2a77dee3, !- SummerDesignDay Schedule:Day Name
  cb10227c-3e3b-4ee5-b133-a03c2a77dee3, !- WinterDesignDay Schedule:Day Name
  cb10227c-3e3b-4ee5-b133-a03c2a77dee3, !- CustomDay1 Schedule:Day Name
  cb10227c-3e3b-4ee5-b133-a03c2a77dee3; !- CustomDay2 Schedule:Day Name

Schedule:Week:Daily, GlobalCO2_36,
  bcf3a902-50ba-4ee1-b586-81f99a8558d6, !- Sunday Schedule:Day Name
  a613c5b2-5c76-48ce-842a-8ecda5b29716, !- Monday Schedule:Day Name
  c0c722e3-c78b-4e84-8ec3-de9b7d0bea08, !- Tuesday Schedule:Day Name
  cbcda0f9-4a00-48d7-b5d4-459b2862f58d, !- Wednesday Schedule:Day Name
  2798da38-3215-45c2-bfba-33e8caf46c7c, !- Thursday Schedule:Day Name
  e89abba1-26af-45c4-9389-d44f7d539c6d, !- Friday Schedule:Day Name
  190edab6-d822-421c-8623-86d9b5b4ce16, !- Saturday Schedule:Day Name
  bcf3a902-50ba-4ee1-b586-81f99a8558d6, !- Holiday Schedule:Day Name
  bcf3a902-50ba-4ee1-b586-81f99a8558d6, !- SummerDesignDay Schedule:Day Name
  bcf3a902-50ba-4ee1-b586-81f99a8558d6, !- WinterDesignDay Schedule:Day Name
  bcf3a902-50ba-4ee1-b586-81f99a8558d6, !- CustomDay1 Schedule:Day Name
  bcf3a902-50ba-4ee1-b586-81f99a8558d6; !- CustomDay2 Schedule:Day Name

Schedule:Week:Daily, GlobalCO2_37,
  f26e0083-a8b8-4387-8e96-ed0df13cb477, !- Sunday Schedule:Day Name
  aaa57963-25a7-4300-a048-1edee90ff74c, !- Monday Schedule:Day Name
  d4800b6d-c6a6-44ea-a293-744f544c1bd5, !- Tuesday Schedule:Day Name
  1478d7e9-b927-4812-bc91-ad49db3b797f, !- Wednesday Schedule:Day Name
  6bda6b8f-1109-4d68-8d27-7dc5693e5b1a, !- Thursday Schedule:Day Name
  be5f50cd-7688-4a61-ac60-6b48ae19295f, !- Friday Schedule:Day Name
  673a38a5-88d4-4e76-b404-4164160c4e44, !- Saturday Schedule:Day Name
  f26e0083-a8b8-4387-8e96-ed0df13cb477, !- Holiday Schedule:Day Name
  f26e0083-a8b8-4387-8e96-ed0df13cb477, !- SummerDesignDay Schedule:Day Name
  f26e0083-a8b8-4387-8e96-ed0df13cb477, !- WinterDesignDay Schedule:Day Name
  f26e0083-a8b8-4387-8e96-ed0df13cb477, !- CustomDay1 Schedule:Day Name
  f26e0083-a8b8-4387-8e96-ed0df13cb477; !- CustomDay2 Schedule:Day Name

Schedule:Week:Daily, GlobalCO2_38,
  681bf461-3172-4e64-96a0-ae7275e4fa61, !- Sunday Schedule:Day Name
  6e59cddf-3d4f-47a8-b668-6515b9f25b11, !- Monday Schedule:Day Name
  d1bf5f9d-9379-411b-a41d-8694345734f2, !- Tuesday Schedule:Day Name
  3b556207-dec7-45c8-9a8e-ff45e829f58d, !- Wednesday Schedule:Day Name
  e104c16a-d9ee-4a99-a3c3-0a51f97a4e14, !- Thursday Schedule:Day Name
  07177446-5490-465e-8324-a04bf38a3e74, !- Friday Schedule:Day Name
  f492c958-6a14-4bdb-9cc7-7e7a567d9fee, !- Saturday Schedule:Day Name
  681bf461-3172-4e64-96a0-ae7275e4fa61, !- Holiday Schedule:Day Name
  681bf461-3172-4e64-96a0-ae7275e4fa61, !- SummerDesignDay Schedule:Day Name
  681bf461-3172-4e64-96a0-ae7275e4fa61, !- WinterDesignDay Schedule:Day Name
  681bf461-3172-4e64-96a0-ae7275e4fa61, !- CustomDay1 Schedule:Day Name
  681bf461-3172-4e64-96a0-ae7275e4fa61; !- CustomDay2 Schedule:Day Name

Schedule:Week:Daily, GlobalCO2_39,
  2d5ac8ce-2a0d-43bf-9343-edad5ff796a9, !- Sunday Schedule:Day Name
  f91a1297-2dc4-4b05-bd6d-dbad69e09e57, !- Monday Schedule:Day Name
  58ff0fa1-f2d3-44af-ad22-222c20dc8dd9, !- Tuesday Schedule:Day Name
  525663cf-218c-48ae-a5d8-5337b7fdebf6, !- Wednesday Schedule:Day Name
  17ad6c1c-eb9d-45db-8cd9-36448e1626c0, !- Thursday Schedule:Day Name
  b274a54f-996c-4cbd-876c-7607fc8916c8, !- Friday Schedule:Day Name
  2c437556-e4b5-4365-9859-8df87c406e43, !- Saturday Schedule:Day Name
  2d5ac8ce-2a0d-43bf-9343-edad5ff796a9, !- Holiday Schedule:Day Name
  2d5ac8ce-2a0d-43bf-9343-edad5ff796a9, !- SummerDesignDay Schedule:Day Name
  2d5ac8ce-2a0d-43bf-9343-edad5ff796a9, !- WinterDesignDay Schedule:Day Name
  2d5ac8ce-2a0d-43bf-9343-edad5ff796a9, !- CustomDay1 Schedule:Day Name
  2d5ac8ce-2a0d-43bf-9343-edad5ff796a9; !- CustomDay2 Schedule:Day Name

Schedule:Week:Daily, GlobalCO2_40,
  f6e6f42f-62dc-4634-9045-b1a2a7f0386a, !- Sunday Schedule:Day Name
  f57b49fa-119e-4237-8800-af76b8bbe751, !- Monday Schedule:Day Name
  c4d51b78-cb43-4612-9cba-1761a3f1769f, !- Tuesday Schedule:Day Name
  a2ca28ae-860a-440d-851b-fd1441e5f84b, !- Wednesday Schedule:Day Name
  d6a2b674-0588-425f-af4a-37d59e551542, !- Thursday Schedule:Day Name
  97d358b3-974e-40ce-a070-bede44c68679, !- Friday Schedule:Day Name
  73647d2b-9484-4a7b-9c8a-616b1dc4005f, !- Saturday Schedule:Day Name
  f6e6f42f-62dc-4634-9045-b1a2a7f0386a, !- Holiday Schedule:Day Name
  f6e6f42f-62dc-4634-9045-b1a2a7f0386a, !- SummerDesignDay Schedule:Day Name
  f6e6f42f-62dc-4634-9045-b1a2a7f0386a, !- WinterDesignDay Schedule:Day Name
  f6e6f42f-62dc-4634-9045-b1a2a7f0386a, !- CustomDay1 Schedule:Day Name
  f6e6f42f-62dc-4634-9045-b1a2a7f0386a; !- CustomDay2 Schedule:Day Name

Schedule:Week:Daily, GlobalCO2_41,
  e4d074d8-64eb-45dd-b431-05724c4e6d93, !- Sunday Schedule:Day Name
  a32fe5cb-df0a-4228-a894-afaff3cfa481, !- Monday Schedule:Day Name
  6cd29933-5a5e-4f4b-b037-94f47cd567ab, !- Tuesday Schedule:Day Name
  5f058ec2-6be8-4e4d-838c-d52889fcbac3, !- Wednesday Schedule:Day Name
  5b0fa87c-e4a3-46bb-a70a-44ee46327d24, !- Thursday Schedule:Day Name
  876b50a0-a93d-418e-a1d7-64cfcfda8203, !- Friday Schedule:Day Name
  d3864e0b-9ee6-4908-a673-72ba4ee9b484, !- Saturday Schedule:Day Name
  e4d074d8-64eb-45dd-b431-05724c4e6d93, !- Holiday Schedule:Day Name
  e4d074d8-64eb-45dd-b431-05724c4e6d93, !- SummerDesignDay Schedule:Day Name
  e4d074d8-64eb-45dd-b431-05724c4e6d93, !- WinterDesignDay Schedule:Day Name
  e4d074d8-64eb-45dd-b431-05724c4e6d93, !- CustomDay1 Schedule:Day Name
  e4d074d8-64eb-45dd-b431-05724c4e6d93; !- CustomDay2 Schedule:Day Name

Schedule:Week:Daily, GlobalCO2_42,
  bbc27d81-1724-4aaf-8baf-994c018c92f3, !- Sunday Schedule:Day Name
  ee2d574a-a9d7-44f1-97ae-99bcd1857118, !- Monday Schedule:Day Name
  ac8a9a51-a34f-45d7-b48e-cf4fd959c64c, !- Tuesday Schedule:Day Name
  ff431e93-2eba-425f-9afb-55ab53bc61e4, !- Wednesday Schedule:Day Name
  1597202d-1b82-4189-b8e0-59d1a645d6ac, !- Thursday Schedule:Day Name
  40a1f04d-4988-4970-807d-07ab215fff70, !- Friday Schedule:Day Name
  48fc6954-c5dc-42b7-a7d4-ec22e95a68ca, !- Saturday Schedule:Day Name
  bbc27d81-1724-4aaf-8baf-994c018c92f3, !- Holiday Schedule:Day Name
  bbc27d81-1724-4aaf-8baf-994c018c92f3, !- SummerDesignDay Schedule:Day Name
  bbc27d81-1724-4aaf-8baf-994c018c92f3, !- WinterDesignDay Schedule:Day Name
  bbc27d81-1724-4aaf-8baf-994c018c92f3, !- CustomDay1 Schedule:Day Name
  bbc27d81-1724-4aaf-8baf-994c018c92f3; !- CustomDay2 Schedule:Day Name

Schedule:Week:Daily, GlobalCO2_43,
  8068e4aa-227b-456f-987c-395ba7f27698, !- Sunday Schedule:Day Name
  bf4a7ad9-ec5e-4cf6-92de-1f95e836e1be, !- Monday Schedule:Day Name
  59ec3815-e26e-477c-9428-93571ab1f843, !- Tuesday Schedule:Day Name
  dad73342-5802-4e5d-b705-87f09a08c342, !- Wednesday Schedule:Day Name
  e947bec5-0e66-4961-9811-356498f19432, !- Thursday Schedule:Day Name
  a93e08d3-23d8-4e61-90f6-e640857dbaac, !- Friday Schedule:Day Name
  56cfe28c-e26c-4ae1-9b92-de3b75fad6b2, !- Saturday Schedule:Day Name
  8068e4aa-227b-456f-987c-395ba7f27698, !- Holiday Schedule:Day Name
  8068e4aa-227b-456f-987c-395ba7f27698, !- SummerDesignDay Schedule:Day Name
  8068e4aa-227b-456f-987c-395ba7f27698, !- WinterDesignDay Schedule:Day Name
  8068e4aa-227b-456f-987c-395ba7f27698, !- CustomDay1 Schedule:Day Name
  8068e4aa-227b-456f-987c-395ba7f27698; !- CustomDay2 Schedule:Day Name

Schedule:Week:Daily, GlobalCO2_44,
  cf6eeb92-4164-458b-8c62-9e9d54c7f01d, !- Sunday Schedule:Day Name
  6b855014-35f2-466b-b997-875977ab0f92, !- Monday Schedule:Day Name
  2baf0d21-929b-426a-92dd-65ad9007ac3a, !- Tuesday Schedule:Day Name
  641109da-5682-4d78-849e-258f9e9d8d02, !- Wednesday Schedule:Day Name
  caaf64de-ac2c-4458-807e-fba37278728e, !- Thursday Schedule:Day Name
  70125a3f-54b8-4b9e-bd43-01cf7615fdae, !- Friday Schedule:Day Name
  487d5196-791b-49c7-96b3-f64cdf9bf749, !- Saturday Schedule:Day Name
  cf6eeb92-4164-458b-8c62-9e9d54c7f01d, !- Holiday Schedule:Day Name
  cf6eeb92-4164-458b-8c62-9e9d54c7f01d, !- SummerDesignDay Schedule:Day Name
  cf6eeb92-4164-458b-8c62-9e9d54c7f01d, !- WinterDesignDay Schedule:Day Name
  cf6eeb92-4164-458b-8c62-9e9d54c7f01d, !- CustomDay1 Schedule:Day Name
  cf6eeb92-4164-458b-8c62-9e9d54c7f01d; !- CustomDay2 Schedule:Day Name

Schedule:Week:Daily, GlobalCO2_45,
  e1e911c5-e79d-48f7-975b-859d884361ea, !- Sunday Schedule:Day Name
  6cec100b-f946-4206-ad48-274873959a84, !- Monday Schedule:Day Name
  991cb4b1-243b-4561-a8a0-b52310d6e18e, !- Tuesday Schedule:Day Name
  e99c2389-07ce-4544-8d5b-44786caaf6c7, !- Wednesday Schedule:Day Name
  21747528-96c1-4213-a5ca-902795f3f4d7, !- Thursday Schedule:Day Name
  9794f603-fc42-4ead-b01e-54d921cb1145, !- Friday Schedule:Day Name
  4f8b35d3-74d2-4d6d-9cea-0490c0965131, !- Saturday Schedule:Day Name
  e1e911c5-e79d-48f7-975b-859d884361ea, !- Holiday Schedule:Day Name
  e1e911c5-e79d-48f7-975b-859d884361ea, !- SummerDesignDay Schedule:Day Name
  e1e911c5-e79d-48f7-975b-859d884361ea, !- WinterDesignDay Schedule:Day Name
  e1e911c5-e79d-48f7-975b-859d884361ea, !- CustomDay1 Schedule:Day Name
  e1e911c5-e79d-48f7-975b-859d884361ea; !- CustomDay2 Schedule:Day Name

Schedule:Week:Daily, GlobalCO2_46,
  769a9a2b-15c8-4dc2-bf8f-d47f6978397a, !- Sunday Schedule:Day Name
  f6342cd0-bc13-4a58-a3d3-aeab71d2f780, !- Monday Schedule:Day Name
  d2dfd965-03a6-4075-8bfa-9f963d444851, !- Tuesday Schedule:Day Name
  24eacfc7-05ce-4021-a0bb-8ebe7c83e7b3, !- Wednesday Schedule:Day Name
  a41a77c2-e844-44b5-b942-04c4e5e3803d, !- Thursday Schedule:Day Name
  9fb19f8e-abec-4c8c-9b68-30d0acb109cb, !- Friday Schedule:Day Name
  266ad578-da56-47a3-9081-dc3ebf68ba46, !- Saturday Schedule:Day Name
  769a9a2b-15c8-4dc2-bf8f-d47f6978397a, !- Holiday Schedule:Day Name
  769a9a2b-15c8-4dc2-bf8f-d47f6978397a, !- SummerDesignDay Schedule:Day Name
  769a9a2b-15c8-4dc2-bf8f-d47f6978397a, !- WinterDesignDay Schedule:Day Name
  769a9a2b-15c8-4dc2-bf8f-d47f6978397a, !- CustomDay1 Schedule:Day Name
  769a9a2b-15c8-4dc2-bf8f-d47f6978397a; !- CustomDay2 Schedule:Day Name

Schedule:Week:Daily, GlobalCO2_47,
  3a1dd7e8-03b4-4e2c-8eb5-85e84bae630b, !- Sunday Schedule:Day Name
  146185d9-7021-4d97-9776-3ad6980e6ab2, !- Monday Schedule:Day Name
  ca370dbc-f888-4e9a-856c-a39386bb94b9, !- Tuesday Schedule:Day Name
  57eea8d0-5948-4613-b385-92342e48d28f, !- Wednesday Schedule:Day Name
  def090e7-0b81-4d98-9791-9258bd9565d3, !- Thursday Schedule:Day Name
  3551554e-2545-4269-89fb-addace2f7198, !- Friday Schedule:Day Name
  6f72b99e-acd5-4d1d-b3e2-4340a1c84f4d, !- Saturday Schedule:Day Name
  3a1dd7e8-03b4-4e2c-8eb5-85e84bae630b, !- Holiday Schedule:Day Name
  3a1dd7e8-03b4-4e2c-8eb5-85e84bae630b, !- SummerDesignDay Schedule:Day Name
  3a1dd7e8-03b4-4e2c-8eb5-85e84bae630b, !- WinterDesignDay Schedule:Day Name
  3a1dd7e8-03b4-4e2c-8eb5-85e84bae630b, !- CustomDay1 Schedule:Day Name
  3a1dd7e8-03b4-4e2c-8eb5-85e84bae630b; !- CustomDay2 Schedule:Day Name

Schedule:Week:Daily, GlobalCO2_48,
  269f27f6-9d49-4153-96f2-c22bcc018d7c, !- Sunday Schedule:Day Name
  d6830e18-1e93-4f3c-92ad-5f27ac7362b1, !- Monday Schedule:Day Name
  66b1e551-3771-4e40-b995-3045d82db120, !- Tuesday Schedule:Day Name
  991b7402-f0f9-42b1-a9e0-4edcbd81698d, !- Wednesday Schedule:Day Name
  a27cd3bf-f737-4e7c-a46a-201ce65565c1, !- Thursday Schedule:Day Name
  3eab41ca-876f-49d2-88b3-a6f30ed7d785, !- Friday Schedule:Day Name
  b97ded6e-7e26-4e8b-9909-353f5ee0fb8b, !- Saturday Schedule:Day Name
  269f27f6-9d49-4153-96f2-c22bcc018d7c, !- Holiday Schedule:Day Name
  269f27f6-9d49-4153-96f2-c22bcc018d7c, !- SummerDesignDay Schedule:Day Name
  269f27f6-9d49-4153-96f2-c22bcc018d7c, !- WinterDesignDay Schedule:Day Name
  269f27f6-9d49-4153-96f2-c22bcc018d7c, !- CustomDay1 Schedule:Day Name
  269f27f6-9d49-4153-96f2-c22bcc018d7c; !- CustomDay2 Schedule:Day Name

Schedule:Week:Daily, GlobalCO2_49,
  be0ea864-ff46-4be2-bce1-6a5d0eaec933, !- Sunday Schedule:Day Name
  0420776e-2d09-44cf-98c3-583d9403fee3, !- Monday Schedule:Day Name
  1a065973-31f0-4c4d-b767-74f6ea7ad2a0, !- Tuesday Schedule:Day Name
  cc005a6a-c15e-4329-939e-a72091330780, !- Wednesday Schedule:Day Name
  570b5aaf-cd57-4d28-b799-57645d608ce2, !- Thursday Schedule:Day Name
  b2567f66-26e6-4066-95aa-63813c1515a8, !- Friday Schedule:Day Name
  6ab16a15-e68b-49e7-abf4-235536c08d8a, !- Saturday Schedule:Day Name
  be0ea864-ff46-4be2-bce1-6a5d0eaec933, !- Holiday Schedule:Day Name
  be0ea864-ff46-4be2-bce1-6a5d0eaec933, !- SummerDesignDay Schedule:Day Name
  be0ea864-ff46-4be2-bce1-6a5d0eaec933, !- WinterDesignDay Schedule:Day Name
  be0ea864-ff46-4be2-bce1-6a5d0eaec933, !- CustomDay1 Schedule:Day Name
  be0ea864-ff46-4be2-bce1-6a5d0eaec933; !- CustomDay2 Schedule:Day Name

Schedule:Week:Daily, GlobalCO2_50,
  529d67a4-c6bc-472a-9a44-53ebbf434308, !- Sunday Schedule:Day Name
  d02f64c6-bdcd-4369-9a86-ea7bb9ad1e3a, !- Monday Schedule:Day Name
  0c68c272-e78a-4750-aef0-21c1da6f151a, !- Tuesday Schedule:Day Name
  bee0c9da-84e1-4433-939d-3d78747a36cc, !- Wednesday Schedule:Day Name
  91f8c2d5-993c-49c8-9e00-fe4eb65b2e2f, !- Thursday Schedule:Day Name
  def9b3d2-40f4-4d82-bc85-03b50d45a782, !- Friday Schedule:Day Name
  58dd0c97-8f78-4fd5-adb8-707b4f0f5edf, !- Saturday Schedule:Day Name
  529d67a4-c6bc-472a-9a44-53ebbf434308, !- Holiday Schedule:Day Name
  529d67a4-c6bc-472a-9a44-53ebbf434308, !- SummerDesignDay Schedule:Day Name
  529d67a4-c6bc-472a-9a44-53ebbf434308, !- WinterDesignDay Schedule:Day Name
  529d67a4-c6bc-472a-9a44-53ebbf434308, !- CustomDay1 Schedule:Day Name
  529d67a4-c6bc-472a-9a44-53ebbf434308; !- CustomDay2 Schedule:Day Name

Schedule:Week:Daily, GlobalCO2_51,
  516756fe-0097-441e-a72d-adfd30436e14, !- Sunday Schedule:Day Name
  82c35612-a8c8-482f-ba6c-06b4b085eae4, !- Monday Schedule:Day Name
  597b02dd-59ea-408d-af48-9a701abce0f4, !- Tuesday Schedule:Day Name
  d3c8c3a1-ab03-4f4a-847c-07881cc6df4f, !- Wednesday Schedule:Day Name
  84d81ba4-583b-40c6-8496-1dee506ee018, !- Thursday Schedule:Day Name
  f5f8f17b-2c38-4645-9011-d193d192222c, !- Friday Schedule:Day Name
  96e66f8a-5918-458a-8b29-7e360e16cc36, !- Saturday Schedule:Day Name
  516756fe-0097-441e-a72d-adfd30436e14, !- Holiday Schedule:Day Name
  516756fe-0097-441e-a72d-adfd30436e14, !- SummerDesignDay Schedule:Day Name
  516756fe-0097-441e-a72d-adfd30436e14, !- WinterDesignDay Schedule:Day Name
  516756fe-0097-441e-a72d-adfd30436e14, !- CustomDay1 Schedule:Day Name
  516756fe-0097-441e-a72d-adfd30436e14; !- CustomDay2 Schedule:Day Name

Schedule:Week:Daily, GlobalCO2_52,
  6203ae24-4570-401b-9cdf-3e4e55b08927, !- Sunday Schedule:Day Name
  6203ae24-4570-401b-9cdf-3e4e55b08927, !- Monday Schedule:Day Name
  6203ae24-4570-401b-9cdf-3e4e55b08927, !- Tuesday Schedule:Day Name
  6203ae24-4570-401b-9cdf-3e4e55b08927, !- Wednesday Schedule:Day Name
  6203ae24-4570-401b-9cdf-3e4e55b08927, !- Thursday Schedule:Day Name
  6203ae24-4570-401b-9cdf-3e4e55b08927, !- Friday Schedule:Day Name
  6203ae24-4570-401b-9cdf-3e4e55b08927, !- Saturday Schedule:Day Name
  6203ae24-4570-401b-9cdf-3e4e55b08927, !- Holiday Schedule:Day Name
  6203ae24-4570-401b-9cdf-3e4e55b08927, !- SummerDesignDay Schedule:Day Name
  6203ae24-4570-401b-9cdf-3e4e55b08927, !- WinterDesignDay Schedule:Day Name
  6203ae24-4570-401b-9cdf-3e4e55b08927, !- CustomDay1 Schedule:Day Name
  6203ae24-4570-401b-9cdf-3e4e55b08927; !- CustomDay2 Schedule:Day Name


Schedule:Year,NECB-D-Occupancy,
Fraction,
NECB-D-Occupancy_0,1,1,1,7, 
NECB-D-Occupancy_1,1,8,1,14, 
NECB-D-Occupancy_2,1,15,1,21, 
NECB-D-Occupancy_3,1,22,1,28, 
NECB-D-Occupancy_4,1,29,2,4, 
NECB-D-Occupancy_5,2,5,2,11, 
NECB-D-Occupancy_6,2,12,2,18, 
NECB-D-Occupancy_7,2,19,2,25, 
NECB-D-Occupancy_8,2,26,3,4, 
NECB-D-Occupancy_9,3,5,3,11, 
NECB-D-Occupancy_10,3,12,3,18, 
NECB-D-Occupancy_11,3,19,3,25, 
NECB-D-Occupancy_12,3,26,4,1, 
NECB-D-Occupancy_13,4,2,4,8, 
NECB-D-Occupancy_14,4,9,4,15, 
NECB-D-Occupancy_15,4,16,4,22, 
NECB-D-Occupancy_16,4,23,4,29, 
NECB-D-Occupancy_17,4,30,5,6, 
NECB-D-Occupancy_18,5,7,5,13, 
NECB-D-Occupancy_19,5,14,5,20, 
NECB-D-Occupancy_20,5,21,5,27, 
NECB-D-Occupancy_21,5,28,6,3, 
NECB-D-Occupancy_22,6,4,6,10, 
NECB-D-Occupancy_23,6,11,6,17, 
NECB-D-Occupancy_24,6,18,6,24, 
NECB-D-Occupancy_25,6,25,7,1, 
NECB-D-Occupancy_26,7,2,7,8, 
NECB-D-Occupancy_27,7,9,7,15, 
NECB-D-Occupancy_28,7,16,7,22, 
NECB-D-Occupancy_29,7,23,7,29, 
NECB-D-Occupancy_30,7,30,8,5, 
NECB-D-Occupancy_31,8,6,8,12, 
NECB-D-Occupancy_32,8,13,8,19, 
NECB-D-Occupancy_33,8,20,8,26, 
NECB-D-Occupancy_34,8,27,9,2, 
NECB-D-Occupancy_35,9,3,9,9, 
NECB-D-Occupancy_36,9,10,9,16, 
NECB-D-Occupancy_37,9,17,9,23, 
NECB-D-Occupancy_38,9,24,9,30, 
NECB-D-Occupancy_39,10,1,10,7, 
NECB-D-Occupancy_40,10,8,10,14, 
NECB-D-Occupancy_41,10,15,10,21, 
NECB-D-Occupancy_42,10,22,10,28, 
NECB-D-Occupancy_43,10,29,11,4, 
NECB-D-Occupancy_44,11,5,11,11, 
NECB-D-Occupancy_45,11,12,11,18, 
NECB-D-Occupancy_46,11,19,11,25, 
NECB-D-Occupancy_47,11,26,12,2, 
NECB-D-Occupancy_48,12,3,12,9, 
NECB-D-Occupancy_49,12,10,12,16, 
NECB-D-Occupancy_50,12,17,12,23, 
NECB-D-Occupancy_51,12,24,12,30, 
NECB-D-Occupancy_52,12,31,12,31;

Schedule:Week:Daily, NECB-D-Occupancy_0,
  d9ea127a-ea3e-44f9-b4f6-f443588a29fb, !- Sunday Schedule:Day Name
  d5f2dfb6-7999-4fdb-9b38-f50d1062404a, !- Monday Schedule:Day Name
  d5f2dfb6-7999-4fdb-9b38-f50d1062404a, !- Tuesday Schedule:Day Name
  d5f2dfb6-7999-4fdb-9b38-f50d1062404a, !- Wednesday Schedule:Day Name
  d5f2dfb6-7999-4fdb-9b38-f50d1062404a, !- Thursday Schedule:Day Name
  d5f2dfb6-7999-4fdb-9b38-f50d1062404a, !- Friday Schedule:Day Name
  d9ea127a-ea3e-44f9-b4f6-f443588a29fb, !- Saturday Schedule:Day Name
  d9ea127a-ea3e-44f9-b4f6-f443588a29fb, !- Holiday Schedule:Day Name
  d9ea127a-ea3e-44f9-b4f6-f443588a29fb, !- SummerDesignDay Schedule:Day Name
  d9ea127a-ea3e-44f9-b4f6-f443588a29fb, !- WinterDesignDay Schedule:Day Name
  d9ea127a-ea3e-44f9-b4f6-f443588a29fb, !- CustomDay1 Schedule:Day Name
  d9ea127a-ea3e-44f9-b4f6-f443588a29fb; !- CustomDay2 Schedule:Day Name

Schedule:Week:Daily, NECB-D-Occupancy_1,
  d9ea127a-ea3e-44f9-b4f6-f443588a29fb, !- Sunday Schedule:Day Name
  d5f2dfb6-7999-4fdb-9b38-f50d1062404a, !- Monday Schedule:Day Name
  d5f2dfb6-7999-4fdb-9b38-f50d1062404a, !- Tuesday Schedule:Day Name
  d5f2dfb6-7999-4fdb-9b38-f50d1062404a, !- Wednesday Schedule:Day Name
  d5f2dfb6-7999-4fdb-9b38-f50d1062404a, !- Thursday Schedule:Day Name
  d5f2dfb6-7999-4fdb-9b38-f50d1062404a, !- Friday Schedule:Day Name
  d9ea127a-ea3e-44f9-b4f6-f443588a29fb, !- Saturday Schedule:Day Name
  d9ea127a-ea3e-44f9-b4f6-f443588a29fb, !- Holiday Schedule:Day Name
  d9ea127a-ea3e-44f9-b4f6-f443588a29fb, !- SummerDesignDay Schedule:Day Name
  d9ea127a-ea3e-44f9-b4f6-f443588a29fb, !- WinterDesignDay Schedule:Day Name
  d9ea127a-ea3e-44f9-b4f6-f443588a29fb, !- CustomDay1 Schedule:Day Name
  d9ea127a-ea3e-44f9-b4f6-f443588a29fb; !- CustomDay2 Schedule:Day Name

Schedule:Week:Daily, NECB-D-Occupancy_2,
  d9ea127a-ea3e-44f9-b4f6-f443588a29fb, !- Sunday Schedule:Day Name
  d5f2dfb6-7999-4fdb-9b38-f50d1062404a, !- Monday Schedule:Day Name
  d5f2dfb6-7999-4fdb-9b38-f50d1062404a, !- Tuesday Schedule:Day Name
  d5f2dfb6-7999-4fdb-9b38-f50d1062404a, !- Wednesday Schedule:Day Name
  d5f2dfb6-7999-4fdb-9b38-f50d1062404a, !- Thursday Schedule:Day Name
  d5f2dfb6-7999-4fdb-9b38-f50d1062404a, !- Friday Schedule:Day Name
  d9ea127a-ea3e-44f9-b4f6-f443588a29fb, !- Saturday Schedule:Day Name
  d9ea127a-ea3e-44f9-b4f6-f443588a29fb, !- Holiday Schedule:Day Name
  d9ea127a-ea3e-44f9-b4f6-f443588a29fb, !- SummerDesignDay Schedule:Day Name
  d9ea127a-ea3e-44f9-b4f6-f443588a29fb, !- WinterDesignDay Schedule:Day Name
  d9ea127a-ea3e-44f9-b4f6-f443588a29fb, !- CustomDay1 Schedule:Day Name
  d9ea127a-ea3e-44f9-b4f6-f443588a29fb; !- CustomDay2 Schedule:Day Name

Schedule:Week:Daily, NECB-D-Occupancy_3,
  d9ea127a-ea3e-44f9-b4f6-f443588a29fb, !- Sunday Schedule:Day Name
  d5f2dfb6-7999-4fdb-9b38-f50d1062404a, !- Monday Schedule:Day Name
  d5f2dfb6-7999-4fdb-9b38-f50d1062404a, !- Tuesday Schedule:Day Name
  d5f2dfb6-7999-4fdb-9b38-f50d1062404a, !- Wednesday Schedule:Day Name
  d5f2dfb6-7999-4fdb-9b38-f50d1062404a, !- Thursday Schedule:Day Name
  d5f2dfb6-7999-4fdb-9b38-f50d1062404a, !- Friday Schedule:Day Name
  d9ea127a-ea3e-44f9-b4f6-f443588a29fb, !- Saturday Schedule:Day Name
  d9ea127a-ea3e-44f9-b4f6-f443588a29fb, !- Holiday Schedule:Day Name
  d9ea127a-ea3e-44f9-b4f6-f443588a29fb, !- SummerDesignDay Schedule:Day Name
  d9ea127a-ea3e-44f9-b4f6-f443588a29fb, !- WinterDesignDay Schedule:Day Name
  d9ea127a-ea3e-44f9-b4f6-f443588a29fb, !- CustomDay1 Schedule:Day Name
  d9ea127a-ea3e-44f9-b4f6-f443588a29fb; !- CustomDay2 Schedule:Day Name

Schedule:Week:Daily, NECB-D-Occupancy_4,
  d9ea127a-ea3e-44f9-b4f6-f443588a29fb, !- Sunday Schedule:Day Name
  d5f2dfb6-7999-4fdb-9b38-f50d1062404a, !- Monday Schedule:Day Name
  d5f2dfb6-7999-4fdb-9b38-f50d1062404a, !- Tuesday Schedule:Day Name
  d5f2dfb6-7999-4fdb-9b38-f50d1062404a, !- Wednesday Schedule:Day Name
  d5f2dfb6-7999-4fdb-9b38-f50d1062404a, !- Thursday Schedule:Day Name
  d5f2dfb6-7999-4fdb-9b38-f50d1062404a, !- Friday Schedule:Day Name
  d9ea127a-ea3e-44f9-b4f6-f443588a29fb, !- Saturday Schedule:Day Name
  d9ea127a-ea3e-44f9-b4f6-f443588a29fb, !- Holiday Schedule:Day Name
  d9ea127a-ea3e-44f9-b4f6-f443588a29fb, !- SummerDesignDay Schedule:Day Name
  d9ea127a-ea3e-44f9-b4f6-f443588a29fb, !- WinterDesignDay Schedule:Day Name
  d9ea127a-ea3e-44f9-b4f6-f443588a29fb, !- CustomDay1 Schedule:Day Name
  d9ea127a-ea3e-44f9-b4f6-f443588a29fb; !- CustomDay2 Schedule:Day Name

Schedule:Week:Daily, NECB-D-Occupancy_5,
  d9ea127a-ea3e-44f9-b4f6-f443588a29fb, !- Sunday Schedule:Day Name
  d5f2dfb6-7999-4fdb-9b38-f50d1062404a, !- Monday Schedule:Day Name
  d5f2dfb6-7999-4fdb-9b38-f50d1062404a, !- Tuesday Schedule:Day Name
  d5f2dfb6-7999-4fdb-9b38-f50d1062404a, !- Wednesday Schedule:Day Name
  d5f2dfb6-7999-4fdb-9b38-f50d1062404a, !- Thursday Schedule:Day Name
  d5f2dfb6-7999-4fdb-9b38-f50d1062404a, !- Friday Schedule:Day Name
  d9ea127a-ea3e-44f9-b4f6-f443588a29fb, !- Saturday Schedule:Day Name
  d9ea127a-ea3e-44f9-b4f6-f443588a29fb, !- Holiday Schedule:Day Name
  d9ea127a-ea3e-44f9-b4f6-f443588a29fb, !- SummerDesignDay Schedule:Day Name
  d9ea127a-ea3e-44f9-b4f6-f443588a29fb, !- WinterDesignDay Schedule:Day Name
  d9ea127a-ea3e-44f9-b4f6-f443588a29fb, !- CustomDay1 Schedule:Day Name
  d9ea127a-ea3e-44f9-b4f6-f443588a29fb; !- CustomDay2 Schedule:Day Name

Schedule:Week:Daily, NECB-D-Occupancy_6,
  d9ea127a-ea3e-44f9-b4f6-f443588a29fb, !- Sunday Schedule:Day Name
  d5f2dfb6-7999-4fdb-9b38-f50d1062404a, !- Monday Schedule:Day Name
  d5f2dfb6-7999-4fdb-9b38-f50d1062404a, !- Tuesday Schedule:Day Name
  d5f2dfb6-7999-4fdb-9b38-f50d1062404a, !- Wednesday Schedule:Day Name
  d5f2dfb6-7999-4fdb-9b38-f50d1062404a, !- Thursday Schedule:Day Name
  d5f2dfb6-7999-4fdb-9b38-f50d1062404a, !- Friday Schedule:Day Name
  d9ea127a-ea3e-44f9-b4f6-f443588a29fb, !- Saturday Schedule:Day Name
  d9ea127a-ea3e-44f9-b4f6-f443588a29fb, !- Holiday Schedule:Day Name
  d9ea127a-ea3e-44f9-b4f6-f443588a29fb, !- SummerDesignDay Schedule:Day Name
  d9ea127a-ea3e-44f9-b4f6-f443588a29fb, !- WinterDesignDay Schedule:Day Name
  d9ea127a-ea3e-44f9-b4f6-f443588a29fb, !- CustomDay1 Schedule:Day Name
  d9ea127a-ea3e-44f9-b4f6-f443588a29fb; !- CustomDay2 Schedule:Day Name

Schedule:Week:Daily, NECB-D-Occupancy_7,
  d9ea127a-ea3e-44f9-b4f6-f443588a29fb, !- Sunday Schedule:Day Name
  d5f2dfb6-7999-4fdb-9b38-f50d1062404a, !- Monday Schedule:Day Name
  d5f2dfb6-7999-4fdb-9b38-f50d1062404a, !- Tuesday Schedule:Day Name
  d5f2dfb6-7999-4fdb-9b38-f50d1062404a, !- Wednesday Schedule:Day Name
  d5f2dfb6-7999-4fdb-9b38-f50d1062404a, !- Thursday Schedule:Day Name
  d5f2dfb6-7999-4fdb-9b38-f50d1062404a, !- Friday Schedule:Day Name
  d9ea127a-ea3e-44f9-b4f6-f443588a29fb, !- Saturday Schedule:Day Name
  d9ea127a-ea3e-44f9-b4f6-f443588a29fb, !- Holiday Schedule:Day Name
  d9ea127a-ea3e-44f9-b4f6-f443588a29fb, !- SummerDesignDay Schedule:Day Name
  d9ea127a-ea3e-44f9-b4f6-f443588a29fb, !- WinterDesignDay Schedule:Day Name
  d9ea127a-ea3e-44f9-b4f6-f443588a29fb, !- CustomDay1 Schedule:Day Name
  d9ea127a-ea3e-44f9-b4f6-f443588a29fb; !- CustomDay2 Schedule:Day Name

Schedule:Week:Daily, NECB-D-Occupancy_8,
  d9ea127a-ea3e-44f9-b4f6-f443588a29fb, !- Sunday Schedule:Day Name
  d5f2dfb6-7999-4fdb-9b38-f50d1062404a, !- Monday Schedule:Day Name
  d5f2dfb6-7999-4fdb-9b38-f50d1062404a, !- Tuesday Schedule:Day Name
  d5f2dfb6-7999-4fdb-9b38-f50d1062404a, !- Wednesday Schedule:Day Name
  d5f2dfb6-7999-4fdb-9b38-f50d1062404a, !- Thursday Schedule:Day Name
  d5f2dfb6-7999-4fdb-9b38-f50d1062404a, !- Friday Schedule:Day Name
  d9ea127a-ea3e-44f9-b4f6-f443588a29fb, !- Saturday Schedule:Day Name
  d9ea127a-ea3e-44f9-b4f6-f443588a29fb, !- Holiday Schedule:Day Name
  d9ea127a-ea3e-44f9-b4f6-f443588a29fb, !- SummerDesignDay Schedule:Day Name
  d9ea127a-ea3e-44f9-b4f6-f443588a29fb, !- WinterDesignDay Schedule:Day Name
  d9ea127a-ea3e-44f9-b4f6-f443588a29fb, !- CustomDay1 Schedule:Day Name
  d9ea127a-ea3e-44f9-b4f6-f443588a29fb; !- CustomDay2 Schedule:Day Name

Schedule:Week:Daily, NECB-D-Occupancy_9,
  d9ea127a-ea3e-44f9-b4f6-f443588a29fb, !- Sunday Schedule:Day Name
  d5f2dfb6-7999-4fdb-9b38-f50d1062404a, !- Monday Schedule:Day Name
  d5f2dfb6-7999-4fdb-9b38-f50d1062404a, !- Tuesday Schedule:Day Name
  d5f2dfb6-7999-4fdb-9b38-f50d1062404a, !- Wednesday Schedule:Day Name
  d5f2dfb6-7999-4fdb-9b38-f50d1062404a, !- Thursday Schedule:Day Name
  d5f2dfb6-7999-4fdb-9b38-f50d1062404a, !- Friday Schedule:Day Name
  d9ea127a-ea3e-44f9-b4f6-f443588a29fb, !- Saturday Schedule:Day Name
  d9ea127a-ea3e-44f9-b4f6-f443588a29fb, !- Holiday Schedule:Day Name
  d9ea127a-ea3e-44f9-b4f6-f443588a29fb, !- SummerDesignDay Schedule:Day Name
  d9ea127a-ea3e-44f9-b4f6-f443588a29fb, !- WinterDesignDay Schedule:Day Name
  d9ea127a-ea3e-44f9-b4f6-f443588a29fb, !- CustomDay1 Schedule:Day Name
  d9ea127a-ea3e-44f9-b4f6-f443588a29fb; !- CustomDay2 Schedule:Day Name

Schedule:Week:Daily, NECB-D-Occupancy_10,
  d9ea127a-ea3e-44f9-b4f6-f443588a29fb, !- Sunday Schedule:Day Name
  d5f2dfb6-7999-4fdb-9b38-f50d1062404a, !- Monday Schedule:Day Name
  d5f2dfb6-7999-4fdb-9b38-f50d1062404a, !- Tuesday Schedule:Day Name
  d5f2dfb6-7999-4fdb-9b38-f50d1062404a, !- Wednesday Schedule:Day Name
  d5f2dfb6-7999-4fdb-9b38-f50d1062404a, !- Thursday Schedule:Day Name
  d5f2dfb6-7999-4fdb-9b38-f50d1062404a, !- Friday Schedule:Day Name
  d9ea127a-ea3e-44f9-b4f6-f443588a29fb, !- Saturday Schedule:Day Name
  d9ea127a-ea3e-44f9-b4f6-f443588a29fb, !- Holiday Schedule:Day Name
  d9ea127a-ea3e-44f9-b4f6-f443588a29fb, !- SummerDesignDay Schedule:Day Name
  d9ea127a-ea3e-44f9-b4f6-f443588a29fb, !- WinterDesignDay Schedule:Day Name
  d9ea127a-ea3e-44f9-b4f6-f443588a29fb, !- CustomDay1 Schedule:Day Name
  d9ea127a-ea3e-44f9-b4f6-f443588a29fb; !- CustomDay2 Schedule:Day Name

Schedule:Week:Daily, NECB-D-Occupancy_11,
  d9ea127a-ea3e-44f9-b4f6-f443588a29fb, !- Sunday Schedule:Day Name
  d5f2dfb6-7999-4fdb-9b38-f50d1062404a, !- Monday Schedule:Day Name
  d5f2dfb6-7999-4fdb-9b38-f50d1062404a, !- Tuesday Schedule:Day Name
  d5f2dfb6-7999-4fdb-9b38-f50d1062404a, !- Wednesday Schedule:Day Name
  d5f2dfb6-7999-4fdb-9b38-f50d1062404a, !- Thursday Schedule:Day Name
  d5f2dfb6-7999-4fdb-9b38-f50d1062404a, !- Friday Schedule:Day Name
  d9ea127a-ea3e-44f9-b4f6-f443588a29fb, !- Saturday Schedule:Day Name
  d9ea127a-ea3e-44f9-b4f6-f443588a29fb, !- Holiday Schedule:Day Name
  d9ea127a-ea3e-44f9-b4f6-f443588a29fb, !- SummerDesignDay Schedule:Day Name
  d9ea127a-ea3e-44f9-b4f6-f443588a29fb, !- WinterDesignDay Schedule:Day Name
  d9ea127a-ea3e-44f9-b4f6-f443588a29fb, !- CustomDay1 Schedule:Day Name
  d9ea127a-ea3e-44f9-b4f6-f443588a29fb; !- CustomDay2 Schedule:Day Name

Schedule:Week:Daily, NECB-D-Occupancy_12,
  d9ea127a-ea3e-44f9-b4f6-f443588a29fb, !- Sunday Schedule:Day Name
  d5f2dfb6-7999-4fdb-9b38-f50d1062404a, !- Monday Schedule:Day Name
  d5f2dfb6-7999-4fdb-9b38-f50d1062404a, !- Tuesday Schedule:Day Name
  d5f2dfb6-7999-4fdb-9b38-f50d1062404a, !- Wednesday Schedule:Day Name
  d5f2dfb6-7999-4fdb-9b38-f50d1062404a, !- Thursday Schedule:Day Name
  d5f2dfb6-7999-4fdb-9b38-f50d1062404a, !- Friday Schedule:Day Name
  d9ea127a-ea3e-44f9-b4f6-f443588a29fb, !- Saturday Schedule:Day Name
  d9ea127a-ea3e-44f9-b4f6-f443588a29fb, !- Holiday Schedule:Day Name
  d9ea127a-ea3e-44f9-b4f6-f443588a29fb, !- SummerDesignDay Schedule:Day Name
  d9ea127a-ea3e-44f9-b4f6-f443588a29fb, !- WinterDesignDay Schedule:Day Name
  d9ea127a-ea3e-44f9-b4f6-f443588a29fb, !- CustomDay1 Schedule:Day Name
  d9ea127a-ea3e-44f9-b4f6-f443588a29fb; !- CustomDay2 Schedule:Day Name

Schedule:Week:Daily, NECB-D-Occupancy_13,
  d9ea127a-ea3e-44f9-b4f6-f443588a29fb, !- Sunday Schedule:Day Name
  d5f2dfb6-7999-4fdb-9b38-f50d1062404a, !- Monday Schedule:Day Name
  d5f2dfb6-7999-4fdb-9b38-f50d1062404a, !- Tuesday Schedule:Day Name
  d5f2dfb6-7999-4fdb-9b38-f50d1062404a, !- Wednesday Schedule:Day Name
  d5f2dfb6-7999-4fdb-9b38-f50d1062404a, !- Thursday Schedule:Day Name
  d5f2dfb6-7999-4fdb-9b38-f50d1062404a, !- Friday Schedule:Day Name
  d9ea127a-ea3e-44f9-b4f6-f443588a29fb, !- Saturday Schedule:Day Name
  d9ea127a-ea3e-44f9-b4f6-f443588a29fb, !- Holiday Schedule:Day Name
  d9ea127a-ea3e-44f9-b4f6-f443588a29fb, !- SummerDesignDay Schedule:Day Name
  d9ea127a-ea3e-44f9-b4f6-f443588a29fb, !- WinterDesignDay Schedule:Day Name
  d9ea127a-ea3e-44f9-b4f6-f443588a29fb, !- CustomDay1 Schedule:Day Name
  d9ea127a-ea3e-44f9-b4f6-f443588a29fb; !- CustomDay2 Schedule:Day Name

Schedule:Week:Daily, NECB-D-Occupancy_14,
  d9ea127a-ea3e-44f9-b4f6-f443588a29fb, !- Sunday Schedule:Day Name
  d5f2dfb6-7999-4fdb-9b38-f50d1062404a, !- Monday Schedule:Day Name
  d5f2dfb6-7999-4fdb-9b38-f50d1062404a, !- Tuesday Schedule:Day Name
  d5f2dfb6-7999-4fdb-9b38-f50d1062404a, !- Wednesday Schedule:Day Name
  d5f2dfb6-7999-4fdb-9b38-f50d1062404a, !- Thursday Schedule:Day Name
  d5f2dfb6-7999-4fdb-9b38-f50d1062404a, !- Friday Schedule:Day Name
  d9ea127a-ea3e-44f9-b4f6-f443588a29fb, !- Saturday Schedule:Day Name
  d9ea127a-ea3e-44f9-b4f6-f443588a29fb, !- Holiday Schedule:Day Name
  d9ea127a-ea3e-44f9-b4f6-f443588a29fb, !- SummerDesignDay Schedule:Day Name
  d9ea127a-ea3e-44f9-b4f6-f443588a29fb, !- WinterDesignDay Schedule:Day Name
  d9ea127a-ea3e-44f9-b4f6-f443588a29fb, !- CustomDay1 Schedule:Day Name
  d9ea127a-ea3e-44f9-b4f6-f443588a29fb; !- CustomDay2 Schedule:Day Name

Schedule:Week:Daily, NECB-D-Occupancy_15,
  d9ea127a-ea3e-44f9-b4f6-f443588a29fb, !- Sunday Schedule:Day Name
  d5f2dfb6-7999-4fdb-9b38-f50d1062404a, !- Monday Schedule:Day Name
  d5f2dfb6-7999-4fdb-9b38-f50d1062404a, !- Tuesday Schedule:Day Name
  d5f2dfb6-7999-4fdb-9b38-f50d1062404a, !- Wednesday Schedule:Day Name
  d5f2dfb6-7999-4fdb-9b38-f50d1062404a, !- Thursday Schedule:Day Name
  d5f2dfb6-7999-4fdb-9b38-f50d1062404a, !- Friday Schedule:Day Name
  d9ea127a-ea3e-44f9-b4f6-f443588a29fb, !- Saturday Schedule:Day Name
  d9ea127a-ea3e-44f9-b4f6-f443588a29fb, !- Holiday Schedule:Day Name
  d9ea127a-ea3e-44f9-b4f6-f443588a29fb, !- SummerDesignDay Schedule:Day Name
  d9ea127a-ea3e-44f9-b4f6-f443588a29fb, !- WinterDesignDay Schedule:Day Name
  d9ea127a-ea3e-44f9-b4f6-f443588a29fb, !- CustomDay1 Schedule:Day Name
  d9ea127a-ea3e-44f9-b4f6-f443588a29fb; !- CustomDay2 Schedule:Day Name

Schedule:Week:Daily, NECB-D-Occupancy_16,
  d9ea127a-ea3e-44f9-b4f6-f443588a29fb, !- Sunday Schedule:Day Name
  d5f2dfb6-7999-4fdb-9b38-f50d1062404a, !- Monday Schedule:Day Name
  d5f2dfb6-7999-4fdb-9b38-f50d1062404a, !- Tuesday Schedule:Day Name
  d5f2dfb6-7999-4fdb-9b38-f50d1062404a, !- Wednesday Schedule:Day Name
  d5f2dfb6-7999-4fdb-9b38-f50d1062404a, !- Thursday Schedule:Day Name
  d5f2dfb6-7999-4fdb-9b38-f50d1062404a, !- Friday Schedule:Day Name
  d9ea127a-ea3e-44f9-b4f6-f443588a29fb, !- Saturday Schedule:Day Name
  d9ea127a-ea3e-44f9-b4f6-f443588a29fb, !- Holiday Schedule:Day Name
  d9ea127a-ea3e-44f9-b4f6-f443588a29fb, !- SummerDesignDay Schedule:Day Name
  d9ea127a-ea3e-44f9-b4f6-f443588a29fb, !- WinterDesignDay Schedule:Day Name
  d9ea127a-ea3e-44f9-b4f6-f443588a29fb, !- CustomDay1 Schedule:Day Name
  d9ea127a-ea3e-44f9-b4f6-f443588a29fb; !- CustomDay2 Schedule:Day Name

Schedule:Week:Daily, NECB-D-Occupancy_17,
  d9ea127a-ea3e-44f9-b4f6-f443588a29fb, !- Sunday Schedule:Day Name
  d5f2dfb6-7999-4fdb-9b38-f50d1062404a, !- Monday Schedule:Day Name
  d5f2dfb6-7999-4fdb-9b38-f50d1062404a, !- Tuesday Schedule:Day Name
  d5f2dfb6-7999-4fdb-9b38-f50d1062404a, !- Wednesday Schedule:Day Name
  d5f2dfb6-7999-4fdb-9b38-f50d1062404a, !- Thursday Schedule:Day Name
  d5f2dfb6-7999-4fdb-9b38-f50d1062404a, !- Friday Schedule:Day Name
  d9ea127a-ea3e-44f9-b4f6-f443588a29fb, !- Saturday Schedule:Day Name
  d9ea127a-ea3e-44f9-b4f6-f443588a29fb, !- Holiday Schedule:Day Name
  d9ea127a-ea3e-44f9-b4f6-f443588a29fb, !- SummerDesignDay Schedule:Day Name
  d9ea127a-ea3e-44f9-b4f6-f443588a29fb, !- WinterDesignDay Schedule:Day Name
  d9ea127a-ea3e-44f9-b4f6-f443588a29fb, !- CustomDay1 Schedule:Day Name
  d9ea127a-ea3e-44f9-b4f6-f443588a29fb; !- CustomDay2 Schedule:Day Name

Schedule:Week:Daily, NECB-D-Occupancy_18,
  d9ea127a-ea3e-44f9-b4f6-f443588a29fb, !- Sunday Schedule:Day Name
  d5f2dfb6-7999-4fdb-9b38-f50d1062404a, !- Monday Schedule:Day Name
  d5f2dfb6-7999-4fdb-9b38-f50d1062404a, !- Tuesday Schedule:Day Name
  d5f2dfb6-7999-4fdb-9b38-f50d1062404a, !- Wednesday Schedule:Day Name
  d5f2dfb6-7999-4fdb-9b38-f50d1062404a, !- Thursday Schedule:Day Name
  d5f2dfb6-7999-4fdb-9b38-f50d1062404a, !- Friday Schedule:Day Name
  d9ea127a-ea3e-44f9-b4f6-f443588a29fb, !- Saturday Schedule:Day Name
  d9ea127a-ea3e-44f9-b4f6-f443588a29fb, !- Holiday Schedule:Day Name
  d9ea127a-ea3e-44f9-b4f6-f443588a29fb, !- SummerDesignDay Schedule:Day Name
  d9ea127a-ea3e-44f9-b4f6-f443588a29fb, !- WinterDesignDay Schedule:Day Name
  d9ea127a-ea3e-44f9-b4f6-f443588a29fb, !- CustomDay1 Schedule:Day Name
  d9ea127a-ea3e-44f9-b4f6-f443588a29fb; !- CustomDay2 Schedule:Day Name

Schedule:Week:Daily, NECB-D-Occupancy_19,
  d9ea127a-ea3e-44f9-b4f6-f443588a29fb, !- Sunday Schedule:Day Name
  d5f2dfb6-7999-4fdb-9b38-f50d1062404a, !- Monday Schedule:Day Name
  d5f2dfb6-7999-4fdb-9b38-f50d1062404a, !- Tuesday Schedule:Day Name
  d5f2dfb6-7999-4fdb-9b38-f50d1062404a, !- Wednesday Schedule:Day Name
  d5f2dfb6-7999-4fdb-9b38-f50d1062404a, !- Thursday Schedule:Day Name
  d5f2dfb6-7999-4fdb-9b38-f50d1062404a, !- Friday Schedule:Day Name
  d9ea127a-ea3e-44f9-b4f6-f443588a29fb, !- Saturday Schedule:Day Name
  d9ea127a-ea3e-44f9-b4f6-f443588a29fb, !- Holiday Schedule:Day Name
  d9ea127a-ea3e-44f9-b4f6-f443588a29fb, !- SummerDesignDay Schedule:Day Name
  d9ea127a-ea3e-44f9-b4f6-f443588a29fb, !- WinterDesignDay Schedule:Day Name
  d9ea127a-ea3e-44f9-b4f6-f443588a29fb, !- CustomDay1 Schedule:Day Name
  d9ea127a-ea3e-44f9-b4f6-f443588a29fb; !- CustomDay2 Schedule:Day Name

Schedule:Week:Daily, NECB-D-Occupancy_20,
  d9ea127a-ea3e-44f9-b4f6-f443588a29fb, !- Sunday Schedule:Day Name
  d5f2dfb6-7999-4fdb-9b38-f50d1062404a, !- Monday Schedule:Day Name
  d5f2dfb6-7999-4fdb-9b38-f50d1062404a, !- Tuesday Schedule:Day Name
  d5f2dfb6-7999-4fdb-9b38-f50d1062404a, !- Wednesday Schedule:Day Name
  d5f2dfb6-7999-4fdb-9b38-f50d1062404a, !- Thursday Schedule:Day Name
  d5f2dfb6-7999-4fdb-9b38-f50d1062404a, !- Friday Schedule:Day Name
  d9ea127a-ea3e-44f9-b4f6-f443588a29fb, !- Saturday Schedule:Day Name
  d9ea127a-ea3e-44f9-b4f6-f443588a29fb, !- Holiday Schedule:Day Name
  d9ea127a-ea3e-44f9-b4f6-f443588a29fb, !- SummerDesignDay Schedule:Day Name
  d9ea127a-ea3e-44f9-b4f6-f443588a29fb, !- WinterDesignDay Schedule:Day Name
  d9ea127a-ea3e-44f9-b4f6-f443588a29fb, !- CustomDay1 Schedule:Day Name
  d9ea127a-ea3e-44f9-b4f6-f443588a29fb; !- CustomDay2 Schedule:Day Name

Schedule:Week:Daily, NECB-D-Occupancy_21,
  d9ea127a-ea3e-44f9-b4f6-f443588a29fb, !- Sunday Schedule:Day Name
  d5f2dfb6-7999-4fdb-9b38-f50d1062404a, !- Monday Schedule:Day Name
  d5f2dfb6-7999-4fdb-9b38-f50d1062404a, !- Tuesday Schedule:Day Name
  d5f2dfb6-7999-4fdb-9b38-f50d1062404a, !- Wednesday Schedule:Day Name
  d5f2dfb6-7999-4fdb-9b38-f50d1062404a, !- Thursday Schedule:Day Name
  d5f2dfb6-7999-4fdb-9b38-f50d1062404a, !- Friday Schedule:Day Name
  d9ea127a-ea3e-44f9-b4f6-f443588a29fb, !- Saturday Schedule:Day Name
  d9ea127a-ea3e-44f9-b4f6-f443588a29fb, !- Holiday Schedule:Day Name
  d9ea127a-ea3e-44f9-b4f6-f443588a29fb, !- SummerDesignDay Schedule:Day Name
  d9ea127a-ea3e-44f9-b4f6-f443588a29fb, !- WinterDesignDay Schedule:Day Name
  d9ea127a-ea3e-44f9-b4f6-f443588a29fb, !- CustomDay1 Schedule:Day Name
  d9ea127a-ea3e-44f9-b4f6-f443588a29fb; !- CustomDay2 Schedule:Day Name

Schedule:Week:Daily, NECB-D-Occupancy_22,
  d9ea127a-ea3e-44f9-b4f6-f443588a29fb, !- Sunday Schedule:Day Name
  d5f2dfb6-7999-4fdb-9b38-f50d1062404a, !- Monday Schedule:Day Name
  d5f2dfb6-7999-4fdb-9b38-f50d1062404a, !- Tuesday Schedule:Day Name
  d5f2dfb6-7999-4fdb-9b38-f50d1062404a, !- Wednesday Schedule:Day Name
  d5f2dfb6-7999-4fdb-9b38-f50d1062404a, !- Thursday Schedule:Day Name
  d5f2dfb6-7999-4fdb-9b38-f50d1062404a, !- Friday Schedule:Day Name
  d9ea127a-ea3e-44f9-b4f6-f443588a29fb, !- Saturday Schedule:Day Name
  d9ea127a-ea3e-44f9-b4f6-f443588a29fb, !- Holiday Schedule:Day Name
  d9ea127a-ea3e-44f9-b4f6-f443588a29fb, !- SummerDesignDay Schedule:Day Name
  d9ea127a-ea3e-44f9-b4f6-f443588a29fb, !- WinterDesignDay Schedule:Day Name
  d9ea127a-ea3e-44f9-b4f6-f443588a29fb, !- CustomDay1 Schedule:Day Name
  d9ea127a-ea3e-44f9-b4f6-f443588a29fb; !- CustomDay2 Schedule:Day Name

Schedule:Week:Daily, NECB-D-Occupancy_23,
  d9ea127a-ea3e-44f9-b4f6-f443588a29fb, !- Sunday Schedule:Day Name
  d5f2dfb6-7999-4fdb-9b38-f50d1062404a, !- Monday Schedule:Day Name
  d5f2dfb6-7999-4fdb-9b38-f50d1062404a, !- Tuesday Schedule:Day Name
  d5f2dfb6-7999-4fdb-9b38-f50d1062404a, !- Wednesday Schedule:Day Name
  d5f2dfb6-7999-4fdb-9b38-f50d1062404a, !- Thursday Schedule:Day Name
  d5f2dfb6-7999-4fdb-9b38-f50d1062404a, !- Friday Schedule:Day Name
  d9ea127a-ea3e-44f9-b4f6-f443588a29fb, !- Saturday Schedule:Day Name
  d9ea127a-ea3e-44f9-b4f6-f443588a29fb, !- Holiday Schedule:Day Name
  d9ea127a-ea3e-44f9-b4f6-f443588a29fb, !- SummerDesignDay Schedule:Day Name
  d9ea127a-ea3e-44f9-b4f6-f443588a29fb, !- WinterDesignDay Schedule:Day Name
  d9ea127a-ea3e-44f9-b4f6-f443588a29fb, !- CustomDay1 Schedule:Day Name
  d9ea127a-ea3e-44f9-b4f6-f443588a29fb; !- CustomDay2 Schedule:Day Name

Schedule:Week:Daily, NECB-D-Occupancy_24,
  d9ea127a-ea3e-44f9-b4f6-f443588a29fb, !- Sunday Schedule:Day Name
  d5f2dfb6-7999-4fdb-9b38-f50d1062404a, !- Monday Schedule:Day Name
  d5f2dfb6-7999-4fdb-9b38-f50d1062404a, !- Tuesday Schedule:Day Name
  d5f2dfb6-7999-4fdb-9b38-f50d1062404a, !- Wednesday Schedule:Day Name
  d5f2dfb6-7999-4fdb-9b38-f50d1062404a, !- Thursday Schedule:Day Name
  d5f2dfb6-7999-4fdb-9b38-f50d1062404a, !- Friday Schedule:Day Name
  d9ea127a-ea3e-44f9-b4f6-f443588a29fb, !- Saturday Schedule:Day Name
  d9ea127a-ea3e-44f9-b4f6-f443588a29fb, !- Holiday Schedule:Day Name
  d9ea127a-ea3e-44f9-b4f6-f443588a29fb, !- SummerDesignDay Schedule:Day Name
  d9ea127a-ea3e-44f9-b4f6-f443588a29fb, !- WinterDesignDay Schedule:Day Name
  d9ea127a-ea3e-44f9-b4f6-f443588a29fb, !- CustomDay1 Schedule:Day Name
  d9ea127a-ea3e-44f9-b4f6-f443588a29fb; !- CustomDay2 Schedule:Day Name

Schedule:Week:Daily, NECB-D-Occupancy_25,
  d9ea127a-ea3e-44f9-b4f6-f443588a29fb, !- Sunday Schedule:Day Name
  d5f2dfb6-7999-4fdb-9b38-f50d1062404a, !- Monday Schedule:Day Name
  d5f2dfb6-7999-4fdb-9b38-f50d1062404a, !- Tuesday Schedule:Day Name
  d5f2dfb6-7999-4fdb-9b38-f50d1062404a, !- Wednesday Schedule:Day Name
  d5f2dfb6-7999-4fdb-9b38-f50d1062404a, !- Thursday Schedule:Day Name
  d5f2dfb6-7999-4fdb-9b38-f50d1062404a, !- Friday Schedule:Day Name
  d9ea127a-ea3e-44f9-b4f6-f443588a29fb, !- Saturday Schedule:Day Name
  d9ea127a-ea3e-44f9-b4f6-f443588a29fb, !- Holiday Schedule:Day Name
  d9ea127a-ea3e-44f9-b4f6-f443588a29fb, !- SummerDesignDay Schedule:Day Name
  d9ea127a-ea3e-44f9-b4f6-f443588a29fb, !- WinterDesignDay Schedule:Day Name
  d9ea127a-ea3e-44f9-b4f6-f443588a29fb, !- CustomDay1 Schedule:Day Name
  d9ea127a-ea3e-44f9-b4f6-f443588a29fb; !- CustomDay2 Schedule:Day Name

Schedule:Week:Daily, NECB-D-Occupancy_26,
  d9ea127a-ea3e-44f9-b4f6-f443588a29fb, !- Sunday Schedule:Day Name
  d5f2dfb6-7999-4fdb-9b38-f50d1062404a, !- Monday Schedule:Day Name
  d5f2dfb6-7999-4fdb-9b38-f50d1062404a, !- Tuesday Schedule:Day Name
  d5f2dfb6-7999-4fdb-9b38-f50d1062404a, !- Wednesday Schedule:Day Name
  d5f2dfb6-7999-4fdb-9b38-f50d1062404a, !- Thursday Schedule:Day Name
  d5f2dfb6-7999-4fdb-9b38-f50d1062404a, !- Friday Schedule:Day Name
  d9ea127a-ea3e-44f9-b4f6-f443588a29fb, !- Saturday Schedule:Day Name
  d9ea127a-ea3e-44f9-b4f6-f443588a29fb, !- Holiday Schedule:Day Name
  d9ea127a-ea3e-44f9-b4f6-f443588a29fb, !- SummerDesignDay Schedule:Day Name
  d9ea127a-ea3e-44f9-b4f6-f443588a29fb, !- WinterDesignDay Schedule:Day Name
  d9ea127a-ea3e-44f9-b4f6-f443588a29fb, !- CustomDay1 Schedule:Day Name
  d9ea127a-ea3e-44f9-b4f6-f443588a29fb; !- CustomDay2 Schedule:Day Name

Schedule:Week:Daily, NECB-D-Occupancy_27,
  d9ea127a-ea3e-44f9-b4f6-f443588a29fb, !- Sunday Schedule:Day Name
  d5f2dfb6-7999-4fdb-9b38-f50d1062404a, !- Monday Schedule:Day Name
  d5f2dfb6-7999-4fdb-9b38-f50d1062404a, !- Tuesday Schedule:Day Name
  d5f2dfb6-7999-4fdb-9b38-f50d1062404a, !- Wednesday Schedule:Day Name
  d5f2dfb6-7999-4fdb-9b38-f50d1062404a, !- Thursday Schedule:Day Name
  d5f2dfb6-7999-4fdb-9b38-f50d1062404a, !- Friday Schedule:Day Name
  d9ea127a-ea3e-44f9-b4f6-f443588a29fb, !- Saturday Schedule:Day Name
  d9ea127a-ea3e-44f9-b4f6-f443588a29fb, !- Holiday Schedule:Day Name
  d9ea127a-ea3e-44f9-b4f6-f443588a29fb, !- SummerDesignDay Schedule:Day Name
  d9ea127a-ea3e-44f9-b4f6-f443588a29fb, !- WinterDesignDay Schedule:Day Name
  d9ea127a-ea3e-44f9-b4f6-f443588a29fb, !- CustomDay1 Schedule:Day Name
  d9ea127a-ea3e-44f9-b4f6-f443588a29fb; !- CustomDay2 Schedule:Day Name

Schedule:Week:Daily, NECB-D-Occupancy_28,
  d9ea127a-ea3e-44f9-b4f6-f443588a29fb, !- Sunday Schedule:Day Name
  d5f2dfb6-7999-4fdb-9b38-f50d1062404a, !- Monday Schedule:Day Name
  d5f2dfb6-7999-4fdb-9b38-f50d1062404a, !- Tuesday Schedule:Day Name
  d5f2dfb6-7999-4fdb-9b38-f50d1062404a, !- Wednesday Schedule:Day Name
  d5f2dfb6-7999-4fdb-9b38-f50d1062404a, !- Thursday Schedule:Day Name
  d5f2dfb6-7999-4fdb-9b38-f50d1062404a, !- Friday Schedule:Day Name
  d9ea127a-ea3e-44f9-b4f6-f443588a29fb, !- Saturday Schedule:Day Name
  d9ea127a-ea3e-44f9-b4f6-f443588a29fb, !- Holiday Schedule:Day Name
  d9ea127a-ea3e-44f9-b4f6-f443588a29fb, !- SummerDesignDay Schedule:Day Name
  d9ea127a-ea3e-44f9-b4f6-f443588a29fb, !- WinterDesignDay Schedule:Day Name
  d9ea127a-ea3e-44f9-b4f6-f443588a29fb, !- CustomDay1 Schedule:Day Name
  d9ea127a-ea3e-44f9-b4f6-f443588a29fb; !- CustomDay2 Schedule:Day Name

Schedule:Week:Daily, NECB-D-Occupancy_29,
  d9ea127a-ea3e-44f9-b4f6-f443588a29fb, !- Sunday Schedule:Day Name
  d5f2dfb6-7999-4fdb-9b38-f50d1062404a, !- Monday Schedule:Day Name
  d5f2dfb6-7999-4fdb-9b38-f50d1062404a, !- Tuesday Schedule:Day Name
  d5f2dfb6-7999-4fdb-9b38-f50d1062404a, !- Wednesday Schedule:Day Name
  d5f2dfb6-7999-4fdb-9b38-f50d1062404a, !- Thursday Schedule:Day Name
  d5f2dfb6-7999-4fdb-9b38-f50d1062404a, !- Friday Schedule:Day Name
  d9ea127a-ea3e-44f9-b4f6-f443588a29fb, !- Saturday Schedule:Day Name
  d9ea127a-ea3e-44f9-b4f6-f443588a29fb, !- Holiday Schedule:Day Name
  d9ea127a-ea3e-44f9-b4f6-f443588a29fb, !- SummerDesignDay Schedule:Day Name
  d9ea127a-ea3e-44f9-b4f6-f443588a29fb, !- WinterDesignDay Schedule:Day Name
  d9ea127a-ea3e-44f9-b4f6-f443588a29fb, !- CustomDay1 Schedule:Day Name
  d9ea127a-ea3e-44f9-b4f6-f443588a29fb; !- CustomDay2 Schedule:Day Name

Schedule:Week:Daily, NECB-D-Occupancy_30,
  d9ea127a-ea3e-44f9-b4f6-f443588a29fb, !- Sunday Schedule:Day Name
  d5f2dfb6-7999-4fdb-9b38-f50d1062404a, !- Monday Schedule:Day Name
  d5f2dfb6-7999-4fdb-9b38-f50d1062404a, !- Tuesday Schedule:Day Name
  d5f2dfb6-7999-4fdb-9b38-f50d1062404a, !- Wednesday Schedule:Day Name
  d5f2dfb6-7999-4fdb-9b38-f50d1062404a, !- Thursday Schedule:Day Name
  d5f2dfb6-7999-4fdb-9b38-f50d1062404a, !- Friday Schedule:Day Name
  d9ea127a-ea3e-44f9-b4f6-f443588a29fb, !- Saturday Schedule:Day Name
  d9ea127a-ea3e-44f9-b4f6-f443588a29fb, !- Holiday Schedule:Day Name
  d9ea127a-ea3e-44f9-b4f6-f443588a29fb, !- SummerDesignDay Schedule:Day Name
  d9ea127a-ea3e-44f9-b4f6-f443588a29fb, !- WinterDesignDay Schedule:Day Name
  d9ea127a-ea3e-44f9-b4f6-f443588a29fb, !- CustomDay1 Schedule:Day Name
  d9ea127a-ea3e-44f9-b4f6-f443588a29fb; !- CustomDay2 Schedule:Day Name

Schedule:Week:Daily, NECB-D-Occupancy_31,
  d9ea127a-ea3e-44f9-b4f6-f443588a29fb, !- Sunday Schedule:Day Name
  d5f2dfb6-7999-4fdb-9b38-f50d1062404a, !- Monday Schedule:Day Name
  d5f2dfb6-7999-4fdb-9b38-f50d1062404a, !- Tuesday Schedule:Day Name
  d5f2dfb6-7999-4fdb-9b38-f50d1062404a, !- Wednesday Schedule:Day Name
  d5f2dfb6-7999-4fdb-9b38-f50d1062404a, !- Thursday Schedule:Day Name
  d5f2dfb6-7999-4fdb-9b38-f50d1062404a, !- Friday Schedule:Day Name
  d9ea127a-ea3e-44f9-b4f6-f443588a29fb, !- Saturday Schedule:Day Name
  d9ea127a-ea3e-44f9-b4f6-f443588a29fb, !- Holiday Schedule:Day Name
  d9ea127a-ea3e-44f9-b4f6-f443588a29fb, !- SummerDesignDay Schedule:Day Name
  d9ea127a-ea3e-44f9-b4f6-f443588a29fb, !- WinterDesignDay Schedule:Day Name
  d9ea127a-ea3e-44f9-b4f6-f443588a29fb, !- CustomDay1 Schedule:Day Name
  d9ea127a-ea3e-44f9-b4f6-f443588a29fb; !- CustomDay2 Schedule:Day Name

Schedule:Week:Daily, NECB-D-Occupancy_32,
  d9ea127a-ea3e-44f9-b4f6-f443588a29fb, !- Sunday Schedule:Day Name
  d5f2dfb6-7999-4fdb-9b38-f50d1062404a, !- Monday Schedule:Day Name
  d5f2dfb6-7999-4fdb-9b38-f50d1062404a, !- Tuesday Schedule:Day Name
  d5f2dfb6-7999-4fdb-9b38-f50d1062404a, !- Wednesday Schedule:Day Name
  d5f2dfb6-7999-4fdb-9b38-f50d1062404a, !- Thursday Schedule:Day Name
  d5f2dfb6-7999-4fdb-9b38-f50d1062404a, !- Friday Schedule:Day Name
  d9ea127a-ea3e-44f9-b4f6-f443588a29fb, !- Saturday Schedule:Day Name
  d9ea127a-ea3e-44f9-b4f6-f443588a29fb, !- Holiday Schedule:Day Name
  d9ea127a-ea3e-44f9-b4f6-f443588a29fb, !- SummerDesignDay Schedule:Day Name
  d9ea127a-ea3e-44f9-b4f6-f443588a29fb, !- WinterDesignDay Schedule:Day Name
  d9ea127a-ea3e-44f9-b4f6-f443588a29fb, !- CustomDay1 Schedule:Day Name
  d9ea127a-ea3e-44f9-b4f6-f443588a29fb; !- CustomDay2 Schedule:Day Name

Schedule:Week:Daily, NECB-D-Occupancy_33,
  d9ea127a-ea3e-44f9-b4f6-f443588a29fb, !- Sunday Schedule:Day Name
  d5f2dfb6-7999-4fdb-9b38-f50d1062404a, !- Monday Schedule:Day Name
  d5f2dfb6-7999-4fdb-9b38-f50d1062404a, !- Tuesday Schedule:Day Name
  d5f2dfb6-7999-4fdb-9b38-f50d1062404a, !- Wednesday Schedule:Day Name
  d5f2dfb6-7999-4fdb-9b38-f50d1062404a, !- Thursday Schedule:Day Name
  d5f2dfb6-7999-4fdb-9b38-f50d1062404a, !- Friday Schedule:Day Name
  d9ea127a-ea3e-44f9-b4f6-f443588a29fb, !- Saturday Schedule:Day Name
  d9ea127a-ea3e-44f9-b4f6-f443588a29fb, !- Holiday Schedule:Day Name
  d9ea127a-ea3e-44f9-b4f6-f443588a29fb, !- SummerDesignDay Schedule:Day Name
  d9ea127a-ea3e-44f9-b4f6-f443588a29fb, !- WinterDesignDay Schedule:Day Name
  d9ea127a-ea3e-44f9-b4f6-f443588a29fb, !- CustomDay1 Schedule:Day Name
  d9ea127a-ea3e-44f9-b4f6-f443588a29fb; !- CustomDay2 Schedule:Day Name

Schedule:Week:Daily, NECB-D-Occupancy_34,
  d9ea127a-ea3e-44f9-b4f6-f443588a29fb, !- Sunday Schedule:Day Name
  d5f2dfb6-7999-4fdb-9b38-f50d1062404a, !- Monday Schedule:Day Name
  d5f2dfb6-7999-4fdb-9b38-f50d1062404a, !- Tuesday Schedule:Day Name
  d5f2dfb6-7999-4fdb-9b38-f50d1062404a, !- Wednesday Schedule:Day Name
  d5f2dfb6-7999-4fdb-9b38-f50d1062404a, !- Thursday Schedule:Day Name
  d5f2dfb6-7999-4fdb-9b38-f50d1062404a, !- Friday Schedule:Day Name
  d9ea127a-ea3e-44f9-b4f6-f443588a29fb, !- Saturday Schedule:Day Name
  d9ea127a-ea3e-44f9-b4f6-f443588a29fb, !- Holiday Schedule:Day Name
  d9ea127a-ea3e-44f9-b4f6-f443588a29fb, !- SummerDesignDay Schedule:Day Name
  d9ea127a-ea3e-44f9-b4f6-f443588a29fb, !- WinterDesignDay Schedule:Day Name
  d9ea127a-ea3e-44f9-b4f6-f443588a29fb, !- CustomDay1 Schedule:Day Name
  d9ea127a-ea3e-44f9-b4f6-f443588a29fb; !- CustomDay2 Schedule:Day Name

Schedule:Week:Daily, NECB-D-Occupancy_35,
  d9ea127a-ea3e-44f9-b4f6-f443588a29fb, !- Sunday Schedule:Day Name
  d5f2dfb6-7999-4fdb-9b38-f50d1062404a, !- Monday Schedule:Day Name
  d5f2dfb6-7999-4fdb-9b38-f50d1062404a, !- Tuesday Schedule:Day Name
  d5f2dfb6-7999-4fdb-9b38-f50d1062404a, !- Wednesday Schedule:Day Name
  d5f2dfb6-7999-4fdb-9b38-f50d1062404a, !- Thursday Schedule:Day Name
  d5f2dfb6-7999-4fdb-9b38-f50d1062404a, !- Friday Schedule:Day Name
  d9ea127a-ea3e-44f9-b4f6-f443588a29fb, !- Saturday Schedule:Day Name
  d9ea127a-ea3e-44f9-b4f6-f443588a29fb, !- Holiday Schedule:Day Name
  d9ea127a-ea3e-44f9-b4f6-f443588a29fb, !- SummerDesignDay Schedule:Day Name
  d9ea127a-ea3e-44f9-b4f6-f443588a29fb, !- WinterDesignDay Schedule:Day Name
  d9ea127a-ea3e-44f9-b4f6-f443588a29fb, !- CustomDay1 Schedule:Day Name
  d9ea127a-ea3e-44f9-b4f6-f443588a29fb; !- CustomDay2 Schedule:Day Name

Schedule:Week:Daily, NECB-D-Occupancy_36,
  d9ea127a-ea3e-44f9-b4f6-f443588a29fb, !- Sunday Schedule:Day Name
  d5f2dfb6-7999-4fdb-9b38-f50d1062404a, !- Monday Schedule:Day Name
  d5f2dfb6-7999-4fdb-9b38-f50d1062404a, !- Tuesday Schedule:Day Name
  d5f2dfb6-7999-4fdb-9b38-f50d1062404a, !- Wednesday Schedule:Day Name
  d5f2dfb6-7999-4fdb-9b38-f50d1062404a, !- Thursday Schedule:Day Name
  d5f2dfb6-7999-4fdb-9b38-f50d1062404a, !- Friday Schedule:Day Name
  d9ea127a-ea3e-44f9-b4f6-f443588a29fb, !- Saturday Schedule:Day Name
  d9ea127a-ea3e-44f9-b4f6-f443588a29fb, !- Holiday Schedule:Day Name
  d9ea127a-ea3e-44f9-b4f6-f443588a29fb, !- SummerDesignDay Schedule:Day Name
  d9ea127a-ea3e-44f9-b4f6-f443588a29fb, !- WinterDesignDay Schedule:Day Name
  d9ea127a-ea3e-44f9-b4f6-f443588a29fb, !- CustomDay1 Schedule:Day Name
  d9ea127a-ea3e-44f9-b4f6-f443588a29fb; !- CustomDay2 Schedule:Day Name

Schedule:Week:Daily, NECB-D-Occupancy_37,
  d9ea127a-ea3e-44f9-b4f6-f443588a29fb, !- Sunday Schedule:Day Name
  d5f2dfb6-7999-4fdb-9b38-f50d1062404a, !- Monday Schedule:Day Name
  d5f2dfb6-7999-4fdb-9b38-f50d1062404a, !- Tuesday Schedule:Day Name
  d5f2dfb6-7999-4fdb-9b38-f50d1062404a, !- Wednesday Schedule:Day Name
  d5f2dfb6-7999-4fdb-9b38-f50d1062404a, !- Thursday Schedule:Day Name
  d5f2dfb6-7999-4fdb-9b38-f50d1062404a, !- Friday Schedule:Day Name
  d9ea127a-ea3e-44f9-b4f6-f443588a29fb, !- Saturday Schedule:Day Name
  d9ea127a-ea3e-44f9-b4f6-f443588a29fb, !- Holiday Schedule:Day Name
  d9ea127a-ea3e-44f9-b4f6-f443588a29fb, !- SummerDesignDay Schedule:Day Name
  d9ea127a-ea3e-44f9-b4f6-f443588a29fb, !- WinterDesignDay Schedule:Day Name
  d9ea127a-ea3e-44f9-b4f6-f443588a29fb, !- CustomDay1 Schedule:Day Name
  d9ea127a-ea3e-44f9-b4f6-f443588a29fb; !- CustomDay2 Schedule:Day Name

Schedule:Week:Daily, NECB-D-Occupancy_38,
  d9ea127a-ea3e-44f9-b4f6-f443588a29fb, !- Sunday Schedule:Day Name
  d5f2dfb6-7999-4fdb-9b38-f50d1062404a, !- Monday Schedule:Day Name
  d5f2dfb6-7999-4fdb-9b38-f50d1062404a, !- Tuesday Schedule:Day Name
  d5f2dfb6-7999-4fdb-9b38-f50d1062404a, !- Wednesday Schedule:Day Name
  d5f2dfb6-7999-4fdb-9b38-f50d1062404a, !- Thursday Schedule:Day Name
  d5f2dfb6-7999-4fdb-9b38-f50d1062404a, !- Friday Schedule:Day Name
  d9ea127a-ea3e-44f9-b4f6-f443588a29fb, !- Saturday Schedule:Day Name
  d9ea127a-ea3e-44f9-b4f6-f443588a29fb, !- Holiday Schedule:Day Name
  d9ea127a-ea3e-44f9-b4f6-f443588a29fb, !- SummerDesignDay Schedule:Day Name
  d9ea127a-ea3e-44f9-b4f6-f443588a29fb, !- WinterDesignDay Schedule:Day Name
  d9ea127a-ea3e-44f9-b4f6-f443588a29fb, !- CustomDay1 Schedule:Day Name
  d9ea127a-ea3e-44f9-b4f6-f443588a29fb; !- CustomDay2 Schedule:Day Name

Schedule:Week:Daily, NECB-D-Occupancy_39,
  d9ea127a-ea3e-44f9-b4f6-f443588a29fb, !- Sunday Schedule:Day Name
  d5f2dfb6-7999-4fdb-9b38-f50d1062404a, !- Monday Schedule:Day Name
  d5f2dfb6-7999-4fdb-9b38-f50d1062404a, !- Tuesday Schedule:Day Name
  d5f2dfb6-7999-4fdb-9b38-f50d1062404a, !- Wednesday Schedule:Day Name
  d5f2dfb6-7999-4fdb-9b38-f50d1062404a, !- Thursday Schedule:Day Name
  d5f2dfb6-7999-4fdb-9b38-f50d1062404a, !- Friday Schedule:Day Name
  d9ea127a-ea3e-44f9-b4f6-f443588a29fb, !- Saturday Schedule:Day Name
  d9ea127a-ea3e-44f9-b4f6-f443588a29fb, !- Holiday Schedule:Day Name
  d9ea127a-ea3e-44f9-b4f6-f443588a29fb, !- SummerDesignDay Schedule:Day Name
  d9ea127a-ea3e-44f9-b4f6-f443588a29fb, !- WinterDesignDay Schedule:Day Name
  d9ea127a-ea3e-44f9-b4f6-f443588a29fb, !- CustomDay1 Schedule:Day Name
  d9ea127a-ea3e-44f9-b4f6-f443588a29fb; !- CustomDay2 Schedule:Day Name

Schedule:Week:Daily, NECB-D-Occupancy_40,
  d9ea127a-ea3e-44f9-b4f6-f443588a29fb, !- Sunday Schedule:Day Name
  d5f2dfb6-7999-4fdb-9b38-f50d1062404a, !- Monday Schedule:Day Name
  d5f2dfb6-7999-4fdb-9b38-f50d1062404a, !- Tuesday Schedule:Day Name
  d5f2dfb6-7999-4fdb-9b38-f50d1062404a, !- Wednesday Schedule:Day Name
  d5f2dfb6-7999-4fdb-9b38-f50d1062404a, !- Thursday Schedule:Day Name
  d5f2dfb6-7999-4fdb-9b38-f50d1062404a, !- Friday Schedule:Day Name
  d9ea127a-ea3e-44f9-b4f6-f443588a29fb, !- Saturday Schedule:Day Name
  d9ea127a-ea3e-44f9-b4f6-f443588a29fb, !- Holiday Schedule:Day Name
  d9ea127a-ea3e-44f9-b4f6-f443588a29fb, !- SummerDesignDay Schedule:Day Name
  d9ea127a-ea3e-44f9-b4f6-f443588a29fb, !- WinterDesignDay Schedule:Day Name
  d9ea127a-ea3e-44f9-b4f6-f443588a29fb, !- CustomDay1 Schedule:Day Name
  d9ea127a-ea3e-44f9-b4f6-f443588a29fb; !- CustomDay2 Schedule:Day Name

Schedule:Week:Daily, NECB-D-Occupancy_41,
  d9ea127a-ea3e-44f9-b4f6-f443588a29fb, !- Sunday Schedule:Day Name
  d5f2dfb6-7999-4fdb-9b38-f50d1062404a, !- Monday Schedule:Day Name
  d5f2dfb6-7999-4fdb-9b38-f50d1062404a, !- Tuesday Schedule:Day Name
  d5f2dfb6-7999-4fdb-9b38-f50d1062404a, !- Wednesday Schedule:Day Name
  d5f2dfb6-7999-4fdb-9b38-f50d1062404a, !- Thursday Schedule:Day Name
  d5f2dfb6-7999-4fdb-9b38-f50d1062404a, !- Friday Schedule:Day Name
  d9ea127a-ea3e-44f9-b4f6-f443588a29fb, !- Saturday Schedule:Day Name
  d9ea127a-ea3e-44f9-b4f6-f443588a29fb, !- Holiday Schedule:Day Name
  d9ea127a-ea3e-44f9-b4f6-f443588a29fb, !- SummerDesignDay Schedule:Day Name
  d9ea127a-ea3e-44f9-b4f6-f443588a29fb, !- WinterDesignDay Schedule:Day Name
  d9ea127a-ea3e-44f9-b4f6-f443588a29fb, !- CustomDay1 Schedule:Day Name
  d9ea127a-ea3e-44f9-b4f6-f443588a29fb; !- CustomDay2 Schedule:Day Name

Schedule:Week:Daily, NECB-D-Occupancy_42,
  d9ea127a-ea3e-44f9-b4f6-f443588a29fb, !- Sunday Schedule:Day Name
  d5f2dfb6-7999-4fdb-9b38-f50d1062404a, !- Monday Schedule:Day Name
  d5f2dfb6-7999-4fdb-9b38-f50d1062404a, !- Tuesday Schedule:Day Name
  d5f2dfb6-7999-4fdb-9b38-f50d1062404a, !- Wednesday Schedule:Day Name
  d5f2dfb6-7999-4fdb-9b38-f50d1062404a, !- Thursday Schedule:Day Name
  d5f2dfb6-7999-4fdb-9b38-f50d1062404a, !- Friday Schedule:Day Name
  d9ea127a-ea3e-44f9-b4f6-f443588a29fb, !- Saturday Schedule:Day Name
  d9ea127a-ea3e-44f9-b4f6-f443588a29fb, !- Holiday Schedule:Day Name
  d9ea127a-ea3e-44f9-b4f6-f443588a29fb, !- SummerDesignDay Schedule:Day Name
  d9ea127a-ea3e-44f9-b4f6-f443588a29fb, !- WinterDesignDay Schedule:Day Name
  d9ea127a-ea3e-44f9-b4f6-f443588a29fb, !- CustomDay1 Schedule:Day Name
  d9ea127a-ea3e-44f9-b4f6-f443588a29fb; !- CustomDay2 Schedule:Day Name

Schedule:Week:Daily, NECB-D-Occupancy_43,
  d9ea127a-ea3e-44f9-b4f6-f443588a29fb, !- Sunday Schedule:Day Name
  d5f2dfb6-7999-4fdb-9b38-f50d1062404a, !- Monday Schedule:Day Name
  d5f2dfb6-7999-4fdb-9b38-f50d1062404a, !- Tuesday Schedule:Day Name
  d5f2dfb6-7999-4fdb-9b38-f50d1062404a, !- Wednesday Schedule:Day Name
  d5f2dfb6-7999-4fdb-9b38-f50d1062404a, !- Thursday Schedule:Day Name
  d5f2dfb6-7999-4fdb-9b38-f50d1062404a, !- Friday Schedule:Day Name
  d9ea127a-ea3e-44f9-b4f6-f443588a29fb, !- Saturday Schedule:Day Name
  d9ea127a-ea3e-44f9-b4f6-f443588a29fb, !- Holiday Schedule:Day Name
  d9ea127a-ea3e-44f9-b4f6-f443588a29fb, !- SummerDesignDay Schedule:Day Name
  d9ea127a-ea3e-44f9-b4f6-f443588a29fb, !- WinterDesignDay Schedule:Day Name
  d9ea127a-ea3e-44f9-b4f6-f443588a29fb, !- CustomDay1 Schedule:Day Name
  d9ea127a-ea3e-44f9-b4f6-f443588a29fb; !- CustomDay2 Schedule:Day Name

Schedule:Week:Daily, NECB-D-Occupancy_44,
  d9ea127a-ea3e-44f9-b4f6-f443588a29fb, !- Sunday Schedule:Day Name
  d5f2dfb6-7999-4fdb-9b38-f50d1062404a, !- Monday Schedule:Day Name
  d5f2dfb6-7999-4fdb-9b38-f50d1062404a, !- Tuesday Schedule:Day Name
  d5f2dfb6-7999-4fdb-9b38-f50d1062404a, !- Wednesday Schedule:Day Name
  d5f2dfb6-7999-4fdb-9b38-f50d1062404a, !- Thursday Schedule:Day Name
  d5f2dfb6-7999-4fdb-9b38-f50d1062404a, !- Friday Schedule:Day Name
  d9ea127a-ea3e-44f9-b4f6-f443588a29fb, !- Saturday Schedule:Day Name
  d9ea127a-ea3e-44f9-b4f6-f443588a29fb, !- Holiday Schedule:Day Name
  d9ea127a-ea3e-44f9-b4f6-f443588a29fb, !- SummerDesignDay Schedule:Day Name
  d9ea127a-ea3e-44f9-b4f6-f443588a29fb, !- WinterDesignDay Schedule:Day Name
  d9ea127a-ea3e-44f9-b4f6-f443588a29fb, !- CustomDay1 Schedule:Day Name
  d9ea127a-ea3e-44f9-b4f6-f443588a29fb; !- CustomDay2 Schedule:Day Name

Schedule:Week:Daily, NECB-D-Occupancy_45,
  d9ea127a-ea3e-44f9-b4f6-f443588a29fb, !- Sunday Schedule:Day Name
  d5f2dfb6-7999-4fdb-9b38-f50d1062404a, !- Monday Schedule:Day Name
  d5f2dfb6-7999-4fdb-9b38-f50d1062404a, !- Tuesday Schedule:Day Name
  d5f2dfb6-7999-4fdb-9b38-f50d1062404a, !- Wednesday Schedule:Day Name
  d5f2dfb6-7999-4fdb-9b38-f50d1062404a, !- Thursday Schedule:Day Name
  d5f2dfb6-7999-4fdb-9b38-f50d1062404a, !- Friday Schedule:Day Name
  d9ea127a-ea3e-44f9-b4f6-f443588a29fb, !- Saturday Schedule:Day Name
  d9ea127a-ea3e-44f9-b4f6-f443588a29fb, !- Holiday Schedule:Day Name
  d9ea127a-ea3e-44f9-b4f6-f443588a29fb, !- SummerDesignDay Schedule:Day Name
  d9ea127a-ea3e-44f9-b4f6-f443588a29fb, !- WinterDesignDay Schedule:Day Name
  d9ea127a-ea3e-44f9-b4f6-f443588a29fb, !- CustomDay1 Schedule:Day Name
  d9ea127a-ea3e-44f9-b4f6-f443588a29fb; !- CustomDay2 Schedule:Day Name

Schedule:Week:Daily, NECB-D-Occupancy_46,
  d9ea127a-ea3e-44f9-b4f6-f443588a29fb, !- Sunday Schedule:Day Name
  d5f2dfb6-7999-4fdb-9b38-f50d1062404a, !- Monday Schedule:Day Name
  d5f2dfb6-7999-4fdb-9b38-f50d1062404a, !- Tuesday Schedule:Day Name
  d5f2dfb6-7999-4fdb-9b38-f50d1062404a, !- Wednesday Schedule:Day Name
  d5f2dfb6-7999-4fdb-9b38-f50d1062404a, !- Thursday Schedule:Day Name
  d5f2dfb6-7999-4fdb-9b38-f50d1062404a, !- Friday Schedule:Day Name
  d9ea127a-ea3e-44f9-b4f6-f443588a29fb, !- Saturday Schedule:Day Name
  d9ea127a-ea3e-44f9-b4f6-f443588a29fb, !- Holiday Schedule:Day Name
  d9ea127a-ea3e-44f9-b4f6-f443588a29fb, !- SummerDesignDay Schedule:Day Name
  d9ea127a-ea3e-44f9-b4f6-f443588a29fb, !- WinterDesignDay Schedule:Day Name
  d9ea127a-ea3e-44f9-b4f6-f443588a29fb, !- CustomDay1 Schedule:Day Name
  d9ea127a-ea3e-44f9-b4f6-f443588a29fb; !- CustomDay2 Schedule:Day Name

Schedule:Week:Daily, NECB-D-Occupancy_47,
  d9ea127a-ea3e-44f9-b4f6-f443588a29fb, !- Sunday Schedule:Day Name
  d5f2dfb6-7999-4fdb-9b38-f50d1062404a, !- Monday Schedule:Day Name
  d5f2dfb6-7999-4fdb-9b38-f50d1062404a, !- Tuesday Schedule:Day Name
  d5f2dfb6-7999-4fdb-9b38-f50d1062404a, !- Wednesday Schedule:Day Name
  d5f2dfb6-7999-4fdb-9b38-f50d1062404a, !- Thursday Schedule:Day Name
  d5f2dfb6-7999-4fdb-9b38-f50d1062404a, !- Friday Schedule:Day Name
  d9ea127a-ea3e-44f9-b4f6-f443588a29fb, !- Saturday Schedule:Day Name
  d9ea127a-ea3e-44f9-b4f6-f443588a29fb, !- Holiday Schedule:Day Name
  d9ea127a-ea3e-44f9-b4f6-f443588a29fb, !- SummerDesignDay Schedule:Day Name
  d9ea127a-ea3e-44f9-b4f6-f443588a29fb, !- WinterDesignDay Schedule:Day Name
  d9ea127a-ea3e-44f9-b4f6-f443588a29fb, !- CustomDay1 Schedule:Day Name
  d9ea127a-ea3e-44f9-b4f6-f443588a29fb; !- CustomDay2 Schedule:Day Name

Schedule:Week:Daily, NECB-D-Occupancy_48,
  d9ea127a-ea3e-44f9-b4f6-f443588a29fb, !- Sunday Schedule:Day Name
  d5f2dfb6-7999-4fdb-9b38-f50d1062404a, !- Monday Schedule:Day Name
  d5f2dfb6-7999-4fdb-9b38-f50d1062404a, !- Tuesday Schedule:Day Name
  d5f2dfb6-7999-4fdb-9b38-f50d1062404a, !- Wednesday Schedule:Day Name
  d5f2dfb6-7999-4fdb-9b38-f50d1062404a, !- Thursday Schedule:Day Name
  d5f2dfb6-7999-4fdb-9b38-f50d1062404a, !- Friday Schedule:Day Name
  d9ea127a-ea3e-44f9-b4f6-f443588a29fb, !- Saturday Schedule:Day Name
  d9ea127a-ea3e-44f9-b4f6-f443588a29fb, !- Holiday Schedule:Day Name
  d9ea127a-ea3e-44f9-b4f6-f443588a29fb, !- SummerDesignDay Schedule:Day Name
  d9ea127a-ea3e-44f9-b4f6-f443588a29fb, !- WinterDesignDay Schedule:Day Name
  d9ea127a-ea3e-44f9-b4f6-f443588a29fb, !- CustomDay1 Schedule:Day Name
  d9ea127a-ea3e-44f9-b4f6-f443588a29fb; !- CustomDay2 Schedule:Day Name

Schedule:Week:Daily, NECB-D-Occupancy_49,
  d9ea127a-ea3e-44f9-b4f6-f443588a29fb, !- Sunday Schedule:Day Name
  d5f2dfb6-7999-4fdb-9b38-f50d1062404a, !- Monday Schedule:Day Name
  d5f2dfb6-7999-4fdb-9b38-f50d1062404a, !- Tuesday Schedule:Day Name
  d5f2dfb6-7999-4fdb-9b38-f50d1062404a, !- Wednesday Schedule:Day Name
  d5f2dfb6-7999-4fdb-9b38-f50d1062404a, !- Thursday Schedule:Day Name
  d5f2dfb6-7999-4fdb-9b38-f50d1062404a, !- Friday Schedule:Day Name
  d9ea127a-ea3e-44f9-b4f6-f443588a29fb, !- Saturday Schedule:Day Name
  d9ea127a-ea3e-44f9-b4f6-f443588a29fb, !- Holiday Schedule:Day Name
  d9ea127a-ea3e-44f9-b4f6-f443588a29fb, !- SummerDesignDay Schedule:Day Name
  d9ea127a-ea3e-44f9-b4f6-f443588a29fb, !- WinterDesignDay Schedule:Day Name
  d9ea127a-ea3e-44f9-b4f6-f443588a29fb, !- CustomDay1 Schedule:Day Name
  d9ea127a-ea3e-44f9-b4f6-f443588a29fb; !- CustomDay2 Schedule:Day Name

Schedule:Week:Daily, NECB-D-Occupancy_50,
  d9ea127a-ea3e-44f9-b4f6-f443588a29fb, !- Sunday Schedule:Day Name
  d5f2dfb6-7999-4fdb-9b38-f50d1062404a, !- Monday Schedule:Day Name
  d5f2dfb6-7999-4fdb-9b38-f50d1062404a, !- Tuesday Schedule:Day Name
  d5f2dfb6-7999-4fdb-9b38-f50d1062404a, !- Wednesday Schedule:Day Name
  d5f2dfb6-7999-4fdb-9b38-f50d1062404a, !- Thursday Schedule:Day Name
  d5f2dfb6-7999-4fdb-9b38-f50d1062404a, !- Friday Schedule:Day Name
  d9ea127a-ea3e-44f9-b4f6-f443588a29fb, !- Saturday Schedule:Day Name
  d9ea127a-ea3e-44f9-b4f6-f443588a29fb, !- Holiday Schedule:Day Name
  d9ea127a-ea3e-44f9-b4f6-f443588a29fb, !- SummerDesignDay Schedule:Day Name
  d9ea127a-ea3e-44f9-b4f6-f443588a29fb, !- WinterDesignDay Schedule:Day Name
  d9ea127a-ea3e-44f9-b4f6-f443588a29fb, !- CustomDay1 Schedule:Day Name
  d9ea127a-ea3e-44f9-b4f6-f443588a29fb; !- CustomDay2 Schedule:Day Name

Schedule:Week:Daily, NECB-D-Occupancy_51,
  d9ea127a-ea3e-44f9-b4f6-f443588a29fb, !- Sunday Schedule:Day Name
  d5f2dfb6-7999-4fdb-9b38-f50d1062404a, !- Monday Schedule:Day Name
  d5f2dfb6-7999-4fdb-9b38-f50d1062404a, !- Tuesday Schedule:Day Name
  d5f2dfb6-7999-4fdb-9b38-f50d1062404a, !- Wednesday Schedule:Day Name
  d5f2dfb6-7999-4fdb-9b38-f50d1062404a, !- Thursday Schedule:Day Name
  d5f2dfb6-7999-4fdb-9b38-f50d1062404a, !- Friday Schedule:Day Name
  d9ea127a-ea3e-44f9-b4f6-f443588a29fb, !- Saturday Schedule:Day Name
  d9ea127a-ea3e-44f9-b4f6-f443588a29fb, !- Holiday Schedule:Day Name
  d9ea127a-ea3e-44f9-b4f6-f443588a29fb, !- SummerDesignDay Schedule:Day Name
  d9ea127a-ea3e-44f9-b4f6-f443588a29fb, !- WinterDesignDay Schedule:Day Name
  d9ea127a-ea3e-44f9-b4f6-f443588a29fb, !- CustomDay1 Schedule:Day Name
  d9ea127a-ea3e-44f9-b4f6-f443588a29fb; !- CustomDay2 Schedule:Day Name

Schedule:Week:Daily, NECB-D-Occupancy_52,
  d9ea127a-ea3e-44f9-b4f6-f443588a29fb, !- Sunday Schedule:Day Name
  d9ea127a-ea3e-44f9-b4f6-f443588a29fb, !- Monday Schedule:Day Name
  d9ea127a-ea3e-44f9-b4f6-f443588a29fb, !- Tuesday Schedule:Day Name
  d9ea127a-ea3e-44f9-b4f6-f443588a29fb, !- Wednesday Schedule:Day Name
  d9ea127a-ea3e-44f9-b4f6-f443588a29fb, !- Thursday Schedule:Day Name
  d9ea127a-ea3e-44f9-b4f6-f443588a29fb, !- Friday Schedule:Day Name
  d9ea127a-ea3e-44f9-b4f6-f443588a29fb, !- Saturday Schedule:Day Name
  d9ea127a-ea3e-44f9-b4f6-f443588a29fb, !- Holiday Schedule:Day Name
  d9ea127a-ea3e-44f9-b4f6-f443588a29fb, !- SummerDesignDay Schedule:Day Name
  d9ea127a-ea3e-44f9-b4f6-f443588a29fb, !- WinterDesignDay Schedule:Day Name
  d9ea127a-ea3e-44f9-b4f6-f443588a29fb, !- CustomDay1 Schedule:Day Name
  d9ea127a-ea3e-44f9-b4f6-f443588a29fb; !- CustomDay2 Schedule:Day Name


Schedule:Year,NECB-D-Lighting,
Fraction,
NECB-D-Lighting_0,1,1,1,7, 
NECB-D-Lighting_1,1,8,1,14, 
NECB-D-Lighting_2,1,15,1,21, 
NECB-D-Lighting_3,1,22,1,28, 
NECB-D-Lighting_4,1,29,2,4, 
NECB-D-Lighting_5,2,5,2,11, 
NECB-D-Lighting_6,2,12,2,18, 
NECB-D-Lighting_7,2,19,2,25, 
NECB-D-Lighting_8,2,26,3,4, 
NECB-D-Lighting_9,3,5,3,11, 
NECB-D-Lighting_10,3,12,3,18, 
NECB-D-Lighting_11,3,19,3,25, 
NECB-D-Lighting_12,3,26,4,1, 
NECB-D-Lighting_13,4,2,4,8, 
NECB-D-Lighting_14,4,9,4,15, 
NECB-D-Lighting_15,4,16,4,22, 
NECB-D-Lighting_16,4,23,4,29, 
NECB-D-Lighting_17,4,30,5,6, 
NECB-D-Lighting_18,5,7,5,13, 
NECB-D-Lighting_19,5,14,5,20, 
NECB-D-Lighting_20,5,21,5,27, 
NECB-D-Lighting_21,5,28,6,3, 
NECB-D-Lighting_22,6,4,6,10, 
NECB-D-Lighting_23,6,11,6,17, 
NECB-D-Lighting_24,6,18,6,24, 
NECB-D-Lighting_25,6,25,7,1, 
NECB-D-Lighting_26,7,2,7,8, 
NECB-D-Lighting_27,7,9,7,15, 
NECB-D-Lighting_28,7,16,7,22, 
NECB-D-Lighting_29,7,23,7,29, 
NECB-D-Lighting_30,7,30,8,5, 
NECB-D-Lighting_31,8,6,8,12, 
NECB-D-Lighting_32,8,13,8,19, 
NECB-D-Lighting_33,8,20,8,26, 
NECB-D-Lighting_34,8,27,9,2, 
NECB-D-Lighting_35,9,3,9,9, 
NECB-D-Lighting_36,9,10,9,16, 
NECB-D-Lighting_37,9,17,9,23, 
NECB-D-Lighting_38,9,24,9,30, 
NECB-D-Lighting_39,10,1,10,7, 
NECB-D-Lighting_40,10,8,10,14, 
NECB-D-Lighting_41,10,15,10,21, 
NECB-D-Lighting_42,10,22,10,28, 
NECB-D-Lighting_43,10,29,11,4, 
NECB-D-Lighting_44,11,5,11,11, 
NECB-D-Lighting_45,11,12,11,18, 
NECB-D-Lighting_46,11,19,11,25, 
NECB-D-Lighting_47,11,26,12,2, 
NECB-D-Lighting_48,12,3,12,9, 
NECB-D-Lighting_49,12,10,12,16, 
NECB-D-Lighting_50,12,17,12,23, 
NECB-D-Lighting_51,12,24,12,30, 
NECB-D-Lighting_52,12,31,12,31;

Schedule:Week:Daily, NECB-D-Lighting_0,
  79f6dca9-5fe9-478a-bde9-12d42f6e605d, !- Sunday Schedule:Day Name
  03f89016-f015-4308-9cd2-91c3df1526ea, !- Monday Schedule:Day Name
  03f89016-f015-4308-9cd2-91c3df1526ea, !- Tuesday Schedule:Day Name
  03f89016-f015-4308-9cd2-91c3df1526ea, !- Wednesday Schedule:Day Name
  03f89016-f015-4308-9cd2-91c3df1526ea, !- Thursday Schedule:Day Name
  03f89016-f015-4308-9cd2-91c3df1526ea, !- Friday Schedule:Day Name
  79f6dca9-5fe9-478a-bde9-12d42f6e605d, !- Saturday Schedule:Day Name
  79f6dca9-5fe9-478a-bde9-12d42f6e605d, !- Holiday Schedule:Day Name
  79f6dca9-5fe9-478a-bde9-12d42f6e605d, !- SummerDesignDay Schedule:Day Name
  79f6dca9-5fe9-478a-bde9-12d42f6e605d, !- WinterDesignDay Schedule:Day Name
  79f6dca9-5fe9-478a-bde9-12d42f6e605d, !- CustomDay1 Schedule:Day Name
  79f6dca9-5fe9-478a-bde9-12d42f6e605d; !- CustomDay2 Schedule:Day Name

Schedule:Week:Daily, NECB-D-Lighting_1,
  79f6dca9-5fe9-478a-bde9-12d42f6e605d, !- Sunday Schedule:Day Name
  03f89016-f015-4308-9cd2-91c3df1526ea, !- Monday Schedule:Day Name
  03f89016-f015-4308-9cd2-91c3df1526ea, !- Tuesday Schedule:Day Name
  03f89016-f015-4308-9cd2-91c3df1526ea, !- Wednesday Schedule:Day Name
  03f89016-f015-4308-9cd2-91c3df1526ea, !- Thursday Schedule:Day Name
  03f89016-f015-4308-9cd2-91c3df1526ea, !- Friday Schedule:Day Name
  79f6dca9-5fe9-478a-bde9-12d42f6e605d, !- Saturday Schedule:Day Name
  79f6dca9-5fe9-478a-bde9-12d42f6e605d, !- Holiday Schedule:Day Name
  79f6dca9-5fe9-478a-bde9-12d42f6e605d, !- SummerDesignDay Schedule:Day Name
  79f6dca9-5fe9-478a-bde9-12d42f6e605d, !- WinterDesignDay Schedule:Day Name
  79f6dca9-5fe9-478a-bde9-12d42f6e605d, !- CustomDay1 Schedule:Day Name
  79f6dca9-5fe9-478a-bde9-12d42f6e605d; !- CustomDay2 Schedule:Day Name

Schedule:Week:Daily, NECB-D-Lighting_2,
  79f6dca9-5fe9-478a-bde9-12d42f6e605d, !- Sunday Schedule:Day Name
  03f89016-f015-4308-9cd2-91c3df1526ea, !- Monday Schedule:Day Name
  03f89016-f015-4308-9cd2-91c3df1526ea, !- Tuesday Schedule:Day Name
  03f89016-f015-4308-9cd2-91c3df1526ea, !- Wednesday Schedule:Day Name
  03f89016-f015-4308-9cd2-91c3df1526ea, !- Thursday Schedule:Day Name
  03f89016-f015-4308-9cd2-91c3df1526ea, !- Friday Schedule:Day Name
  79f6dca9-5fe9-478a-bde9-12d42f6e605d, !- Saturday Schedule:Day Name
  79f6dca9-5fe9-478a-bde9-12d42f6e605d, !- Holiday Schedule:Day Name
  79f6dca9-5fe9-478a-bde9-12d42f6e605d, !- SummerDesignDay Schedule:Day Name
  79f6dca9-5fe9-478a-bde9-12d42f6e605d, !- WinterDesignDay Schedule:Day Name
  79f6dca9-5fe9-478a-bde9-12d42f6e605d, !- CustomDay1 Schedule:Day Name
  79f6dca9-5fe9-478a-bde9-12d42f6e605d; !- CustomDay2 Schedule:Day Name

Schedule:Week:Daily, NECB-D-Lighting_3,
  79f6dca9-5fe9-478a-bde9-12d42f6e605d, !- Sunday Schedule:Day Name
  03f89016-f015-4308-9cd2-91c3df1526ea, !- Monday Schedule:Day Name
  03f89016-f015-4308-9cd2-91c3df1526ea, !- Tuesday Schedule:Day Name
  03f89016-f015-4308-9cd2-91c3df1526ea, !- Wednesday Schedule:Day Name
  03f89016-f015-4308-9cd2-91c3df1526ea, !- Thursday Schedule:Day Name
  03f89016-f015-4308-9cd2-91c3df1526ea, !- Friday Schedule:Day Name
  79f6dca9-5fe9-478a-bde9-12d42f6e605d, !- Saturday Schedule:Day Name
  79f6dca9-5fe9-478a-bde9-12d42f6e605d, !- Holiday Schedule:Day Name
  79f6dca9-5fe9-478a-bde9-12d42f6e605d, !- SummerDesignDay Schedule:Day Name
  79f6dca9-5fe9-478a-bde9-12d42f6e605d, !- WinterDesignDay Schedule:Day Name
  79f6dca9-5fe9-478a-bde9-12d42f6e605d, !- CustomDay1 Schedule:Day Name
  79f6dca9-5fe9-478a-bde9-12d42f6e605d; !- CustomDay2 Schedule:Day Name

Schedule:Week:Daily, NECB-D-Lighting_4,
  79f6dca9-5fe9-478a-bde9-12d42f6e605d, !- Sunday Schedule:Day Name
  03f89016-f015-4308-9cd2-91c3df1526ea, !- Monday Schedule:Day Name
  03f89016-f015-4308-9cd2-91c3df1526ea, !- Tuesday Schedule:Day Name
  03f89016-f015-4308-9cd2-91c3df1526ea, !- Wednesday Schedule:Day Name
  03f89016-f015-4308-9cd2-91c3df1526ea, !- Thursday Schedule:Day Name
  03f89016-f015-4308-9cd2-91c3df1526ea, !- Friday Schedule:Day Name
  79f6dca9-5fe9-478a-bde9-12d42f6e605d, !- Saturday Schedule:Day Name
  79f6dca9-5fe9-478a-bde9-12d42f6e605d, !- Holiday Schedule:Day Name
  79f6dca9-5fe9-478a-bde9-12d42f6e605d, !- SummerDesignDay Schedule:Day Name
  79f6dca9-5fe9-478a-bde9-12d42f6e605d, !- WinterDesignDay Schedule:Day Name
  79f6dca9-5fe9-478a-bde9-12d42f6e605d, !- CustomDay1 Schedule:Day Name
  79f6dca9-5fe9-478a-bde9-12d42f6e605d; !- CustomDay2 Schedule:Day Name

Schedule:Week:Daily, NECB-D-Lighting_5,
  79f6dca9-5fe9-478a-bde9-12d42f6e605d, !- Sunday Schedule:Day Name
  03f89016-f015-4308-9cd2-91c3df1526ea, !- Monday Schedule:Day Name
  03f89016-f015-4308-9cd2-91c3df1526ea, !- Tuesday Schedule:Day Name
  03f89016-f015-4308-9cd2-91c3df1526ea, !- Wednesday Schedule:Day Name
  03f89016-f015-4308-9cd2-91c3df1526ea, !- Thursday Schedule:Day Name
  03f89016-f015-4308-9cd2-91c3df1526ea, !- Friday Schedule:Day Name
  79f6dca9-5fe9-478a-bde9-12d42f6e605d, !- Saturday Schedule:Day Name
  79f6dca9-5fe9-478a-bde9-12d42f6e605d, !- Holiday Schedule:Day Name
  79f6dca9-5fe9-478a-bde9-12d42f6e605d, !- SummerDesignDay Schedule:Day Name
  79f6dca9-5fe9-478a-bde9-12d42f6e605d, !- WinterDesignDay Schedule:Day Name
  79f6dca9-5fe9-478a-bde9-12d42f6e605d, !- CustomDay1 Schedule:Day Name
  79f6dca9-5fe9-478a-bde9-12d42f6e605d; !- CustomDay2 Schedule:Day Name

Schedule:Week:Daily, NECB-D-Lighting_6,
  79f6dca9-5fe9-478a-bde9-12d42f6e605d, !- Sunday Schedule:Day Name
  03f89016-f015-4308-9cd2-91c3df1526ea, !- Monday Schedule:Day Name
  03f89016-f015-4308-9cd2-91c3df1526ea, !- Tuesday Schedule:Day Name
  03f89016-f015-4308-9cd2-91c3df1526ea, !- Wednesday Schedule:Day Name
  03f89016-f015-4308-9cd2-91c3df1526ea, !- Thursday Schedule:Day Name
  03f89016-f015-4308-9cd2-91c3df1526ea, !- Friday Schedule:Day Name
  79f6dca9-5fe9-478a-bde9-12d42f6e605d, !- Saturday Schedule:Day Name
  79f6dca9-5fe9-478a-bde9-12d42f6e605d, !- Holiday Schedule:Day Name
  79f6dca9-5fe9-478a-bde9-12d42f6e605d, !- SummerDesignDay Schedule:Day Name
  79f6dca9-5fe9-478a-bde9-12d42f6e605d, !- WinterDesignDay Schedule:Day Name
  79f6dca9-5fe9-478a-bde9-12d42f6e605d, !- CustomDay1 Schedule:Day Name
  79f6dca9-5fe9-478a-bde9-12d42f6e605d; !- CustomDay2 Schedule:Day Name

Schedule:Week:Daily, NECB-D-Lighting_7,
  79f6dca9-5fe9-478a-bde9-12d42f6e605d, !- Sunday Schedule:Day Name
  03f89016-f015-4308-9cd2-91c3df1526ea, !- Monday Schedule:Day Name
  03f89016-f015-4308-9cd2-91c3df1526ea, !- Tuesday Schedule:Day Name
  03f89016-f015-4308-9cd2-91c3df1526ea, !- Wednesday Schedule:Day Name
  03f89016-f015-4308-9cd2-91c3df1526ea, !- Thursday Schedule:Day Name
  03f89016-f015-4308-9cd2-91c3df1526ea, !- Friday Schedule:Day Name
  79f6dca9-5fe9-478a-bde9-12d42f6e605d, !- Saturday Schedule:Day Name
  79f6dca9-5fe9-478a-bde9-12d42f6e605d, !- Holiday Schedule:Day Name
  79f6dca9-5fe9-478a-bde9-12d42f6e605d, !- SummerDesignDay Schedule:Day Name
  79f6dca9-5fe9-478a-bde9-12d42f6e605d, !- WinterDesignDay Schedule:Day Name
  79f6dca9-5fe9-478a-bde9-12d42f6e605d, !- CustomDay1 Schedule:Day Name
  79f6dca9-5fe9-478a-bde9-12d42f6e605d; !- CustomDay2 Schedule:Day Name

Schedule:Week:Daily, NECB-D-Lighting_8,
  79f6dca9-5fe9-478a-bde9-12d42f6e605d, !- Sunday Schedule:Day Name
  03f89016-f015-4308-9cd2-91c3df1526ea, !- Monday Schedule:Day Name
  03f89016-f015-4308-9cd2-91c3df1526ea, !- Tuesday Schedule:Day Name
  03f89016-f015-4308-9cd2-91c3df1526ea, !- Wednesday Schedule:Day Name
  03f89016-f015-4308-9cd2-91c3df1526ea, !- Thursday Schedule:Day Name
  03f89016-f015-4308-9cd2-91c3df1526ea, !- Friday Schedule:Day Name
  79f6dca9-5fe9-478a-bde9-12d42f6e605d, !- Saturday Schedule:Day Name
  79f6dca9-5fe9-478a-bde9-12d42f6e605d, !- Holiday Schedule:Day Name
  79f6dca9-5fe9-478a-bde9-12d42f6e605d, !- SummerDesignDay Schedule:Day Name
  79f6dca9-5fe9-478a-bde9-12d42f6e605d, !- WinterDesignDay Schedule:Day Name
  79f6dca9-5fe9-478a-bde9-12d42f6e605d, !- CustomDay1 Schedule:Day Name
  79f6dca9-5fe9-478a-bde9-12d42f6e605d; !- CustomDay2 Schedule:Day Name

Schedule:Week:Daily, NECB-D-Lighting_9,
  79f6dca9-5fe9-478a-bde9-12d42f6e605d, !- Sunday Schedule:Day Name
  03f89016-f015-4308-9cd2-91c3df1526ea, !- Monday Schedule:Day Name
  03f89016-f015-4308-9cd2-91c3df1526ea, !- Tuesday Schedule:Day Name
  03f89016-f015-4308-9cd2-91c3df1526ea, !- Wednesday Schedule:Day Name
  03f89016-f015-4308-9cd2-91c3df1526ea, !- Thursday Schedule:Day Name
  03f89016-f015-4308-9cd2-91c3df1526ea, !- Friday Schedule:Day Name
  79f6dca9-5fe9-478a-bde9-12d42f6e605d, !- Saturday Schedule:Day Name
  79f6dca9-5fe9-478a-bde9-12d42f6e605d, !- Holiday Schedule:Day Name
  79f6dca9-5fe9-478a-bde9-12d42f6e605d, !- SummerDesignDay Schedule:Day Name
  79f6dca9-5fe9-478a-bde9-12d42f6e605d, !- WinterDesignDay Schedule:Day Name
  79f6dca9-5fe9-478a-bde9-12d42f6e605d, !- CustomDay1 Schedule:Day Name
  79f6dca9-5fe9-478a-bde9-12d42f6e605d; !- CustomDay2 Schedule:Day Name

Schedule:Week:Daily, NECB-D-Lighting_10,
  79f6dca9-5fe9-478a-bde9-12d42f6e605d, !- Sunday Schedule:Day Name
  03f89016-f015-4308-9cd2-91c3df1526ea, !- Monday Schedule:Day Name
  03f89016-f015-4308-9cd2-91c3df1526ea, !- Tuesday Schedule:Day Name
  03f89016-f015-4308-9cd2-91c3df1526ea, !- Wednesday Schedule:Day Name
  03f89016-f015-4308-9cd2-91c3df1526ea, !- Thursday Schedule:Day Name
  03f89016-f015-4308-9cd2-91c3df1526ea, !- Friday Schedule:Day Name
  79f6dca9-5fe9-478a-bde9-12d42f6e605d, !- Saturday Schedule:Day Name
  79f6dca9-5fe9-478a-bde9-12d42f6e605d, !- Holiday Schedule:Day Name
  79f6dca9-5fe9-478a-bde9-12d42f6e605d, !- SummerDesignDay Schedule:Day Name
  79f6dca9-5fe9-478a-bde9-12d42f6e605d, !- WinterDesignDay Schedule:Day Name
  79f6dca9-5fe9-478a-bde9-12d42f6e605d, !- CustomDay1 Schedule:Day Name
  79f6dca9-5fe9-478a-bde9-12d42f6e605d; !- CustomDay2 Schedule:Day Name

Schedule:Week:Daily, NECB-D-Lighting_11,
  79f6dca9-5fe9-478a-bde9-12d42f6e605d, !- Sunday Schedule:Day Name
  03f89016-f015-4308-9cd2-91c3df1526ea, !- Monday Schedule:Day Name
  03f89016-f015-4308-9cd2-91c3df1526ea, !- Tuesday Schedule:Day Name
  03f89016-f015-4308-9cd2-91c3df1526ea, !- Wednesday Schedule:Day Name
  03f89016-f015-4308-9cd2-91c3df1526ea, !- Thursday Schedule:Day Name
  03f89016-f015-4308-9cd2-91c3df1526ea, !- Friday Schedule:Day Name
  79f6dca9-5fe9-478a-bde9-12d42f6e605d, !- Saturday Schedule:Day Name
  79f6dca9-5fe9-478a-bde9-12d42f6e605d, !- Holiday Schedule:Day Name
  79f6dca9-5fe9-478a-bde9-12d42f6e605d, !- SummerDesignDay Schedule:Day Name
  79f6dca9-5fe9-478a-bde9-12d42f6e605d, !- WinterDesignDay Schedule:Day Name
  79f6dca9-5fe9-478a-bde9-12d42f6e605d, !- CustomDay1 Schedule:Day Name
  79f6dca9-5fe9-478a-bde9-12d42f6e605d; !- CustomDay2 Schedule:Day Name

Schedule:Week:Daily, NECB-D-Lighting_12,
  79f6dca9-5fe9-478a-bde9-12d42f6e605d, !- Sunday Schedule:Day Name
  03f89016-f015-4308-9cd2-91c3df1526ea, !- Monday Schedule:Day Name
  03f89016-f015-4308-9cd2-91c3df1526ea, !- Tuesday Schedule:Day Name
  03f89016-f015-4308-9cd2-91c3df1526ea, !- Wednesday Schedule:Day Name
  03f89016-f015-4308-9cd2-91c3df1526ea, !- Thursday Schedule:Day Name
  03f89016-f015-4308-9cd2-91c3df1526ea, !- Friday Schedule:Day Name
  79f6dca9-5fe9-478a-bde9-12d42f6e605d, !- Saturday Schedule:Day Name
  79f6dca9-5fe9-478a-bde9-12d42f6e605d, !- Holiday Schedule:Day Name
  79f6dca9-5fe9-478a-bde9-12d42f6e605d, !- SummerDesignDay Schedule:Day Name
  79f6dca9-5fe9-478a-bde9-12d42f6e605d, !- WinterDesignDay Schedule:Day Name
  79f6dca9-5fe9-478a-bde9-12d42f6e605d, !- CustomDay1 Schedule:Day Name
  79f6dca9-5fe9-478a-bde9-12d42f6e605d; !- CustomDay2 Schedule:Day Name

Schedule:Week:Daily, NECB-D-Lighting_13,
  79f6dca9-5fe9-478a-bde9-12d42f6e605d, !- Sunday Schedule:Day Name
  03f89016-f015-4308-9cd2-91c3df1526ea, !- Monday Schedule:Day Name
  03f89016-f015-4308-9cd2-91c3df1526ea, !- Tuesday Schedule:Day Name
  03f89016-f015-4308-9cd2-91c3df1526ea, !- Wednesday Schedule:Day Name
  03f89016-f015-4308-9cd2-91c3df1526ea, !- Thursday Schedule:Day Name
  03f89016-f015-4308-9cd2-91c3df1526ea, !- Friday Schedule:Day Name
  79f6dca9-5fe9-478a-bde9-12d42f6e605d, !- Saturday Schedule:Day Name
  79f6dca9-5fe9-478a-bde9-12d42f6e605d, !- Holiday Schedule:Day Name
  79f6dca9-5fe9-478a-bde9-12d42f6e605d, !- SummerDesignDay Schedule:Day Name
  79f6dca9-5fe9-478a-bde9-12d42f6e605d, !- WinterDesignDay Schedule:Day Name
  79f6dca9-5fe9-478a-bde9-12d42f6e605d, !- CustomDay1 Schedule:Day Name
  79f6dca9-5fe9-478a-bde9-12d42f6e605d; !- CustomDay2 Schedule:Day Name

Schedule:Week:Daily, NECB-D-Lighting_14,
  79f6dca9-5fe9-478a-bde9-12d42f6e605d, !- Sunday Schedule:Day Name
  03f89016-f015-4308-9cd2-91c3df1526ea, !- Monday Schedule:Day Name
  03f89016-f015-4308-9cd2-91c3df1526ea, !- Tuesday Schedule:Day Name
  03f89016-f015-4308-9cd2-91c3df1526ea, !- Wednesday Schedule:Day Name
  03f89016-f015-4308-9cd2-91c3df1526ea, !- Thursday Schedule:Day Name
  03f89016-f015-4308-9cd2-91c3df1526ea, !- Friday Schedule:Day Name
  79f6dca9-5fe9-478a-bde9-12d42f6e605d, !- Saturday Schedule:Day Name
  79f6dca9-5fe9-478a-bde9-12d42f6e605d, !- Holiday Schedule:Day Name
  79f6dca9-5fe9-478a-bde9-12d42f6e605d, !- SummerDesignDay Schedule:Day Name
  79f6dca9-5fe9-478a-bde9-12d42f6e605d, !- WinterDesignDay Schedule:Day Name
  79f6dca9-5fe9-478a-bde9-12d42f6e605d, !- CustomDay1 Schedule:Day Name
  79f6dca9-5fe9-478a-bde9-12d42f6e605d; !- CustomDay2 Schedule:Day Name

Schedule:Week:Daily, NECB-D-Lighting_15,
  79f6dca9-5fe9-478a-bde9-12d42f6e605d, !- Sunday Schedule:Day Name
  03f89016-f015-4308-9cd2-91c3df1526ea, !- Monday Schedule:Day Name
  03f89016-f015-4308-9cd2-91c3df1526ea, !- Tuesday Schedule:Day Name
  03f89016-f015-4308-9cd2-91c3df1526ea, !- Wednesday Schedule:Day Name
  03f89016-f015-4308-9cd2-91c3df1526ea, !- Thursday Schedule:Day Name
  03f89016-f015-4308-9cd2-91c3df1526ea, !- Friday Schedule:Day Name
  79f6dca9-5fe9-478a-bde9-12d42f6e605d, !- Saturday Schedule:Day Name
  79f6dca9-5fe9-478a-bde9-12d42f6e605d, !- Holiday Schedule:Day Name
  79f6dca9-5fe9-478a-bde9-12d42f6e605d, !- SummerDesignDay Schedule:Day Name
  79f6dca9-5fe9-478a-bde9-12d42f6e605d, !- WinterDesignDay Schedule:Day Name
  79f6dca9-5fe9-478a-bde9-12d42f6e605d, !- CustomDay1 Schedule:Day Name
  79f6dca9-5fe9-478a-bde9-12d42f6e605d; !- CustomDay2 Schedule:Day Name

Schedule:Week:Daily, NECB-D-Lighting_16,
  79f6dca9-5fe9-478a-bde9-12d42f6e605d, !- Sunday Schedule:Day Name
  03f89016-f015-4308-9cd2-91c3df1526ea, !- Monday Schedule:Day Name
  03f89016-f015-4308-9cd2-91c3df1526ea, !- Tuesday Schedule:Day Name
  03f89016-f015-4308-9cd2-91c3df1526ea, !- Wednesday Schedule:Day Name
  03f89016-f015-4308-9cd2-91c3df1526ea, !- Thursday Schedule:Day Name
  03f89016-f015-4308-9cd2-91c3df1526ea, !- Friday Schedule:Day Name
  79f6dca9-5fe9-478a-bde9-12d42f6e605d, !- Saturday Schedule:Day Name
  79f6dca9-5fe9-478a-bde9-12d42f6e605d, !- Holiday Schedule:Day Name
  79f6dca9-5fe9-478a-bde9-12d42f6e605d, !- SummerDesignDay Schedule:Day Name
  79f6dca9-5fe9-478a-bde9-12d42f6e605d, !- WinterDesignDay Schedule:Day Name
  79f6dca9-5fe9-478a-bde9-12d42f6e605d, !- CustomDay1 Schedule:Day Name
  79f6dca9-5fe9-478a-bde9-12d42f6e605d; !- CustomDay2 Schedule:Day Name

Schedule:Week:Daily, NECB-D-Lighting_17,
  79f6dca9-5fe9-478a-bde9-12d42f6e605d, !- Sunday Schedule:Day Name
  03f89016-f015-4308-9cd2-91c3df1526ea, !- Monday Schedule:Day Name
  03f89016-f015-4308-9cd2-91c3df1526ea, !- Tuesday Schedule:Day Name
  03f89016-f015-4308-9cd2-91c3df1526ea, !- Wednesday Schedule:Day Name
  03f89016-f015-4308-9cd2-91c3df1526ea, !- Thursday Schedule:Day Name
  03f89016-f015-4308-9cd2-91c3df1526ea, !- Friday Schedule:Day Name
  79f6dca9-5fe9-478a-bde9-12d42f6e605d, !- Saturday Schedule:Day Name
  79f6dca9-5fe9-478a-bde9-12d42f6e605d, !- Holiday Schedule:Day Name
  79f6dca9-5fe9-478a-bde9-12d42f6e605d, !- SummerDesignDay Schedule:Day Name
  79f6dca9-5fe9-478a-bde9-12d42f6e605d, !- WinterDesignDay Schedule:Day Name
  79f6dca9-5fe9-478a-bde9-12d42f6e605d, !- CustomDay1 Schedule:Day Name
  79f6dca9-5fe9-478a-bde9-12d42f6e605d; !- CustomDay2 Schedule:Day Name

Schedule:Week:Daily, NECB-D-Lighting_18,
  79f6dca9-5fe9-478a-bde9-12d42f6e605d, !- Sunday Schedule:Day Name
  03f89016-f015-4308-9cd2-91c3df1526ea, !- Monday Schedule:Day Name
  03f89016-f015-4308-9cd2-91c3df1526ea, !- Tuesday Schedule:Day Name
  03f89016-f015-4308-9cd2-91c3df1526ea, !- Wednesday Schedule:Day Name
  03f89016-f015-4308-9cd2-91c3df1526ea, !- Thursday Schedule:Day Name
  03f89016-f015-4308-9cd2-91c3df1526ea, !- Friday Schedule:Day Name
  79f6dca9-5fe9-478a-bde9-12d42f6e605d, !- Saturday Schedule:Day Name
  79f6dca9-5fe9-478a-bde9-12d42f6e605d, !- Holiday Schedule:Day Name
  79f6dca9-5fe9-478a-bde9-12d42f6e605d, !- SummerDesignDay Schedule:Day Name
  79f6dca9-5fe9-478a-bde9-12d42f6e605d, !- WinterDesignDay Schedule:Day Name
  79f6dca9-5fe9-478a-bde9-12d42f6e605d, !- CustomDay1 Schedule:Day Name
  79f6dca9-5fe9-478a-bde9-12d42f6e605d; !- CustomDay2 Schedule:Day Name

Schedule:Week:Daily, NECB-D-Lighting_19,
  79f6dca9-5fe9-478a-bde9-12d42f6e605d, !- Sunday Schedule:Day Name
  03f89016-f015-4308-9cd2-91c3df1526ea, !- Monday Schedule:Day Name
  03f89016-f015-4308-9cd2-91c3df1526ea, !- Tuesday Schedule:Day Name
  03f89016-f015-4308-9cd2-91c3df1526ea, !- Wednesday Schedule:Day Name
  03f89016-f015-4308-9cd2-91c3df1526ea, !- Thursday Schedule:Day Name
  03f89016-f015-4308-9cd2-91c3df1526ea, !- Friday Schedule:Day Name
  79f6dca9-5fe9-478a-bde9-12d42f6e605d, !- Saturday Schedule:Day Name
  79f6dca9-5fe9-478a-bde9-12d42f6e605d, !- Holiday Schedule:Day Name
  79f6dca9-5fe9-478a-bde9-12d42f6e605d, !- SummerDesignDay Schedule:Day Name
  79f6dca9-5fe9-478a-bde9-12d42f6e605d, !- WinterDesignDay Schedule:Day Name
  79f6dca9-5fe9-478a-bde9-12d42f6e605d, !- CustomDay1 Schedule:Day Name
  79f6dca9-5fe9-478a-bde9-12d42f6e605d; !- CustomDay2 Schedule:Day Name

Schedule:Week:Daily, NECB-D-Lighting_20,
  79f6dca9-5fe9-478a-bde9-12d42f6e605d, !- Sunday Schedule:Day Name
  03f89016-f015-4308-9cd2-91c3df1526ea, !- Monday Schedule:Day Name
  03f89016-f015-4308-9cd2-91c3df1526ea, !- Tuesday Schedule:Day Name
  03f89016-f015-4308-9cd2-91c3df1526ea, !- Wednesday Schedule:Day Name
  03f89016-f015-4308-9cd2-91c3df1526ea, !- Thursday Schedule:Day Name
  03f89016-f015-4308-9cd2-91c3df1526ea, !- Friday Schedule:Day Name
  79f6dca9-5fe9-478a-bde9-12d42f6e605d, !- Saturday Schedule:Day Name
  79f6dca9-5fe9-478a-bde9-12d42f6e605d, !- Holiday Schedule:Day Name
  79f6dca9-5fe9-478a-bde9-12d42f6e605d, !- SummerDesignDay Schedule:Day Name
  79f6dca9-5fe9-478a-bde9-12d42f6e605d, !- WinterDesignDay Schedule:Day Name
  79f6dca9-5fe9-478a-bde9-12d42f6e605d, !- CustomDay1 Schedule:Day Name
  79f6dca9-5fe9-478a-bde9-12d42f6e605d; !- CustomDay2 Schedule:Day Name

Schedule:Week:Daily, NECB-D-Lighting_21,
  79f6dca9-5fe9-478a-bde9-12d42f6e605d, !- Sunday Schedule:Day Name
  03f89016-f015-4308-9cd2-91c3df1526ea, !- Monday Schedule:Day Name
  03f89016-f015-4308-9cd2-91c3df1526ea, !- Tuesday Schedule:Day Name
  03f89016-f015-4308-9cd2-91c3df1526ea, !- Wednesday Schedule:Day Name
  03f89016-f015-4308-9cd2-91c3df1526ea, !- Thursday Schedule:Day Name
  03f89016-f015-4308-9cd2-91c3df1526ea, !- Friday Schedule:Day Name
  79f6dca9-5fe9-478a-bde9-12d42f6e605d, !- Saturday Schedule:Day Name
  79f6dca9-5fe9-478a-bde9-12d42f6e605d, !- Holiday Schedule:Day Name
  79f6dca9-5fe9-478a-bde9-12d42f6e605d, !- SummerDesignDay Schedule:Day Name
  79f6dca9-5fe9-478a-bde9-12d42f6e605d, !- WinterDesignDay Schedule:Day Name
  79f6dca9-5fe9-478a-bde9-12d42f6e605d, !- CustomDay1 Schedule:Day Name
  79f6dca9-5fe9-478a-bde9-12d42f6e605d; !- CustomDay2 Schedule:Day Name

Schedule:Week:Daily, NECB-D-Lighting_22,
  79f6dca9-5fe9-478a-bde9-12d42f6e605d, !- Sunday Schedule:Day Name
  03f89016-f015-4308-9cd2-91c3df1526ea, !- Monday Schedule:Day Name
  03f89016-f015-4308-9cd2-91c3df1526ea, !- Tuesday Schedule:Day Name
  03f89016-f015-4308-9cd2-91c3df1526ea, !- Wednesday Schedule:Day Name
  03f89016-f015-4308-9cd2-91c3df1526ea, !- Thursday Schedule:Day Name
  03f89016-f015-4308-9cd2-91c3df1526ea, !- Friday Schedule:Day Name
  79f6dca9-5fe9-478a-bde9-12d42f6e605d, !- Saturday Schedule:Day Name
  79f6dca9-5fe9-478a-bde9-12d42f6e605d, !- Holiday Schedule:Day Name
  79f6dca9-5fe9-478a-bde9-12d42f6e605d, !- SummerDesignDay Schedule:Day Name
  79f6dca9-5fe9-478a-bde9-12d42f6e605d, !- WinterDesignDay Schedule:Day Name
  79f6dca9-5fe9-478a-bde9-12d42f6e605d, !- CustomDay1 Schedule:Day Name
  79f6dca9-5fe9-478a-bde9-12d42f6e605d; !- CustomDay2 Schedule:Day Name

Schedule:Week:Daily, NECB-D-Lighting_23,
  79f6dca9-5fe9-478a-bde9-12d42f6e605d, !- Sunday Schedule:Day Name
  03f89016-f015-4308-9cd2-91c3df1526ea, !- Monday Schedule:Day Name
  03f89016-f015-4308-9cd2-91c3df1526ea, !- Tuesday Schedule:Day Name
  03f89016-f015-4308-9cd2-91c3df1526ea, !- Wednesday Schedule:Day Name
  03f89016-f015-4308-9cd2-91c3df1526ea, !- Thursday Schedule:Day Name
  03f89016-f015-4308-9cd2-91c3df1526ea, !- Friday Schedule:Day Name
  79f6dca9-5fe9-478a-bde9-12d42f6e605d, !- Saturday Schedule:Day Name
  79f6dca9-5fe9-478a-bde9-12d42f6e605d, !- Holiday Schedule:Day Name
  79f6dca9-5fe9-478a-bde9-12d42f6e605d, !- SummerDesignDay Schedule:Day Name
  79f6dca9-5fe9-478a-bde9-12d42f6e605d, !- WinterDesignDay Schedule:Day Name
  79f6dca9-5fe9-478a-bde9-12d42f6e605d, !- CustomDay1 Schedule:Day Name
  79f6dca9-5fe9-478a-bde9-12d42f6e605d; !- CustomDay2 Schedule:Day Name

Schedule:Week:Daily, NECB-D-Lighting_24,
  79f6dca9-5fe9-478a-bde9-12d42f6e605d, !- Sunday Schedule:Day Name
  03f89016-f015-4308-9cd2-91c3df1526ea, !- Monday Schedule:Day Name
  03f89016-f015-4308-9cd2-91c3df1526ea, !- Tuesday Schedule:Day Name
  03f89016-f015-4308-9cd2-91c3df1526ea, !- Wednesday Schedule:Day Name
  03f89016-f015-4308-9cd2-91c3df1526ea, !- Thursday Schedule:Day Name
  03f89016-f015-4308-9cd2-91c3df1526ea, !- Friday Schedule:Day Name
  79f6dca9-5fe9-478a-bde9-12d42f6e605d, !- Saturday Schedule:Day Name
  79f6dca9-5fe9-478a-bde9-12d42f6e605d, !- Holiday Schedule:Day Name
  79f6dca9-5fe9-478a-bde9-12d42f6e605d, !- SummerDesignDay Schedule:Day Name
  79f6dca9-5fe9-478a-bde9-12d42f6e605d, !- WinterDesignDay Schedule:Day Name
  79f6dca9-5fe9-478a-bde9-12d42f6e605d, !- CustomDay1 Schedule:Day Name
  79f6dca9-5fe9-478a-bde9-12d42f6e605d; !- CustomDay2 Schedule:Day Name

Schedule:Week:Daily, NECB-D-Lighting_25,
  79f6dca9-5fe9-478a-bde9-12d42f6e605d, !- Sunday Schedule:Day Name
  03f89016-f015-4308-9cd2-91c3df1526ea, !- Monday Schedule:Day Name
  03f89016-f015-4308-9cd2-91c3df1526ea, !- Tuesday Schedule:Day Name
  03f89016-f015-4308-9cd2-91c3df1526ea, !- Wednesday Schedule:Day Name
  03f89016-f015-4308-9cd2-91c3df1526ea, !- Thursday Schedule:Day Name
  03f89016-f015-4308-9cd2-91c3df1526ea, !- Friday Schedule:Day Name
  79f6dca9-5fe9-478a-bde9-12d42f6e605d, !- Saturday Schedule:Day Name
  79f6dca9-5fe9-478a-bde9-12d42f6e605d, !- Holiday Schedule:Day Name
  79f6dca9-5fe9-478a-bde9-12d42f6e605d, !- SummerDesignDay Schedule:Day Name
  79f6dca9-5fe9-478a-bde9-12d42f6e605d, !- WinterDesignDay Schedule:Day Name
  79f6dca9-5fe9-478a-bde9-12d42f6e605d, !- CustomDay1 Schedule:Day Name
  79f6dca9-5fe9-478a-bde9-12d42f6e605d; !- CustomDay2 Schedule:Day Name

Schedule:Week:Daily, NECB-D-Lighting_26,
  79f6dca9-5fe9-478a-bde9-12d42f6e605d, !- Sunday Schedule:Day Name
  03f89016-f015-4308-9cd2-91c3df1526ea, !- Monday Schedule:Day Name
  03f89016-f015-4308-9cd2-91c3df1526ea, !- Tuesday Schedule:Day Name
  03f89016-f015-4308-9cd2-91c3df1526ea, !- Wednesday Schedule:Day Name
  03f89016-f015-4308-9cd2-91c3df1526ea, !- Thursday Schedule:Day Name
  03f89016-f015-4308-9cd2-91c3df1526ea, !- Friday Schedule:Day Name
  79f6dca9-5fe9-478a-bde9-12d42f6e605d, !- Saturday Schedule:Day Name
  79f6dca9-5fe9-478a-bde9-12d42f6e605d, !- Holiday Schedule:Day Name
  79f6dca9-5fe9-478a-bde9-12d42f6e605d, !- SummerDesignDay Schedule:Day Name
  79f6dca9-5fe9-478a-bde9-12d42f6e605d, !- WinterDesignDay Schedule:Day Name
  79f6dca9-5fe9-478a-bde9-12d42f6e605d, !- CustomDay1 Schedule:Day Name
  79f6dca9-5fe9-478a-bde9-12d42f6e605d; !- CustomDay2 Schedule:Day Name

Schedule:Week:Daily, NECB-D-Lighting_27,
  79f6dca9-5fe9-478a-bde9-12d42f6e605d, !- Sunday Schedule:Day Name
  03f89016-f015-4308-9cd2-91c3df1526ea, !- Monday Schedule:Day Name
  03f89016-f015-4308-9cd2-91c3df1526ea, !- Tuesday Schedule:Day Name
  03f89016-f015-4308-9cd2-91c3df1526ea, !- Wednesday Schedule:Day Name
  03f89016-f015-4308-9cd2-91c3df1526ea, !- Thursday Schedule:Day Name
  03f89016-f015-4308-9cd2-91c3df1526ea, !- Friday Schedule:Day Name
  79f6dca9-5fe9-478a-bde9-12d42f6e605d, !- Saturday Schedule:Day Name
  79f6dca9-5fe9-478a-bde9-12d42f6e605d, !- Holiday Schedule:Day Name
  79f6dca9-5fe9-478a-bde9-12d42f6e605d, !- SummerDesignDay Schedule:Day Name
  79f6dca9-5fe9-478a-bde9-12d42f6e605d, !- WinterDesignDay Schedule:Day Name
  79f6dca9-5fe9-478a-bde9-12d42f6e605d, !- CustomDay1 Schedule:Day Name
  79f6dca9-5fe9-478a-bde9-12d42f6e605d; !- CustomDay2 Schedule:Day Name

Schedule:Week:Daily, NECB-D-Lighting_28,
  79f6dca9-5fe9-478a-bde9-12d42f6e605d, !- Sunday Schedule:Day Name
  03f89016-f015-4308-9cd2-91c3df1526ea, !- Monday Schedule:Day Name
  03f89016-f015-4308-9cd2-91c3df1526ea, !- Tuesday Schedule:Day Name
  03f89016-f015-4308-9cd2-91c3df1526ea, !- Wednesday Schedule:Day Name
  03f89016-f015-4308-9cd2-91c3df1526ea, !- Thursday Schedule:Day Name
  03f89016-f015-4308-9cd2-91c3df1526ea, !- Friday Schedule:Day Name
  79f6dca9-5fe9-478a-bde9-12d42f6e605d, !- Saturday Schedule:Day Name
  79f6dca9-5fe9-478a-bde9-12d42f6e605d, !- Holiday Schedule:Day Name
  79f6dca9-5fe9-478a-bde9-12d42f6e605d, !- SummerDesignDay Schedule:Day Name
  79f6dca9-5fe9-478a-bde9-12d42f6e605d, !- WinterDesignDay Schedule:Day Name
  79f6dca9-5fe9-478a-bde9-12d42f6e605d, !- CustomDay1 Schedule:Day Name
  79f6dca9-5fe9-478a-bde9-12d42f6e605d; !- CustomDay2 Schedule:Day Name

Schedule:Week:Daily, NECB-D-Lighting_29,
  79f6dca9-5fe9-478a-bde9-12d42f6e605d, !- Sunday Schedule:Day Name
  03f89016-f015-4308-9cd2-91c3df1526ea, !- Monday Schedule:Day Name
  03f89016-f015-4308-9cd2-91c3df1526ea, !- Tuesday Schedule:Day Name
  03f89016-f015-4308-9cd2-91c3df1526ea, !- Wednesday Schedule:Day Name
  03f89016-f015-4308-9cd2-91c3df1526ea, !- Thursday Schedule:Day Name
  03f89016-f015-4308-9cd2-91c3df1526ea, !- Friday Schedule:Day Name
  79f6dca9-5fe9-478a-bde9-12d42f6e605d, !- Saturday Schedule:Day Name
  79f6dca9-5fe9-478a-bde9-12d42f6e605d, !- Holiday Schedule:Day Name
  79f6dca9-5fe9-478a-bde9-12d42f6e605d, !- SummerDesignDay Schedule:Day Name
  79f6dca9-5fe9-478a-bde9-12d42f6e605d, !- WinterDesignDay Schedule:Day Name
  79f6dca9-5fe9-478a-bde9-12d42f6e605d, !- CustomDay1 Schedule:Day Name
  79f6dca9-5fe9-478a-bde9-12d42f6e605d; !- CustomDay2 Schedule:Day Name

Schedule:Week:Daily, NECB-D-Lighting_30,
  79f6dca9-5fe9-478a-bde9-12d42f6e605d, !- Sunday Schedule:Day Name
  03f89016-f015-4308-9cd2-91c3df1526ea, !- Monday Schedule:Day Name
  03f89016-f015-4308-9cd2-91c3df1526ea, !- Tuesday Schedule:Day Name
  03f89016-f015-4308-9cd2-91c3df1526ea, !- Wednesday Schedule:Day Name
  03f89016-f015-4308-9cd2-91c3df1526ea, !- Thursday Schedule:Day Name
  03f89016-f015-4308-9cd2-91c3df1526ea, !- Friday Schedule:Day Name
  79f6dca9-5fe9-478a-bde9-12d42f6e605d, !- Saturday Schedule:Day Name
  79f6dca9-5fe9-478a-bde9-12d42f6e605d, !- Holiday Schedule:Day Name
  79f6dca9-5fe9-478a-bde9-12d42f6e605d, !- SummerDesignDay Schedule:Day Name
  79f6dca9-5fe9-478a-bde9-12d42f6e605d, !- WinterDesignDay Schedule:Day Name
  79f6dca9-5fe9-478a-bde9-12d42f6e605d, !- CustomDay1 Schedule:Day Name
  79f6dca9-5fe9-478a-bde9-12d42f6e605d; !- CustomDay2 Schedule:Day Name

Schedule:Week:Daily, NECB-D-Lighting_31,
  79f6dca9-5fe9-478a-bde9-12d42f6e605d, !- Sunday Schedule:Day Name
  03f89016-f015-4308-9cd2-91c3df1526ea, !- Monday Schedule:Day Name
  03f89016-f015-4308-9cd2-91c3df1526ea, !- Tuesday Schedule:Day Name
  03f89016-f015-4308-9cd2-91c3df1526ea, !- Wednesday Schedule:Day Name
  03f89016-f015-4308-9cd2-91c3df1526ea, !- Thursday Schedule:Day Name
  03f89016-f015-4308-9cd2-91c3df1526ea, !- Friday Schedule:Day Name
  79f6dca9-5fe9-478a-bde9-12d42f6e605d, !- Saturday Schedule:Day Name
  79f6dca9-5fe9-478a-bde9-12d42f6e605d, !- Holiday Schedule:Day Name
  79f6dca9-5fe9-478a-bde9-12d42f6e605d, !- SummerDesignDay Schedule:Day Name
  79f6dca9-5fe9-478a-bde9-12d42f6e605d, !- WinterDesignDay Schedule:Day Name
  79f6dca9-5fe9-478a-bde9-12d42f6e605d, !- CustomDay1 Schedule:Day Name
  79f6dca9-5fe9-478a-bde9-12d42f6e605d; !- CustomDay2 Schedule:Day Name

Schedule:Week:Daily, NECB-D-Lighting_32,
  79f6dca9-5fe9-478a-bde9-12d42f6e605d, !- Sunday Schedule:Day Name
  03f89016-f015-4308-9cd2-91c3df1526ea, !- Monday Schedule:Day Name
  03f89016-f015-4308-9cd2-91c3df1526ea, !- Tuesday Schedule:Day Name
  03f89016-f015-4308-9cd2-91c3df1526ea, !- Wednesday Schedule:Day Name
  03f89016-f015-4308-9cd2-91c3df1526ea, !- Thursday Schedule:Day Name
  03f89016-f015-4308-9cd2-91c3df1526ea, !- Friday Schedule:Day Name
  79f6dca9-5fe9-478a-bde9-12d42f6e605d, !- Saturday Schedule:Day Name
  79f6dca9-5fe9-478a-bde9-12d42f6e605d, !- Holiday Schedule:Day Name
  79f6dca9-5fe9-478a-bde9-12d42f6e605d, !- SummerDesignDay Schedule:Day Name
  79f6dca9-5fe9-478a-bde9-12d42f6e605d, !- WinterDesignDay Schedule:Day Name
  79f6dca9-5fe9-478a-bde9-12d42f6e605d, !- CustomDay1 Schedule:Day Name
  79f6dca9-5fe9-478a-bde9-12d42f6e605d; !- CustomDay2 Schedule:Day Name

Schedule:Week:Daily, NECB-D-Lighting_33,
  79f6dca9-5fe9-478a-bde9-12d42f6e605d, !- Sunday Schedule:Day Name
  03f89016-f015-4308-9cd2-91c3df1526ea, !- Monday Schedule:Day Name
  03f89016-f015-4308-9cd2-91c3df1526ea, !- Tuesday Schedule:Day Name
  03f89016-f015-4308-9cd2-91c3df1526ea, !- Wednesday Schedule:Day Name
  03f89016-f015-4308-9cd2-91c3df1526ea, !- Thursday Schedule:Day Name
  03f89016-f015-4308-9cd2-91c3df1526ea, !- Friday Schedule:Day Name
  79f6dca9-5fe9-478a-bde9-12d42f6e605d, !- Saturday Schedule:Day Name
  79f6dca9-5fe9-478a-bde9-12d42f6e605d, !- Holiday Schedule:Day Name
  79f6dca9-5fe9-478a-bde9-12d42f6e605d, !- SummerDesignDay Schedule:Day Name
  79f6dca9-5fe9-478a-bde9-12d42f6e605d, !- WinterDesignDay Schedule:Day Name
  79f6dca9-5fe9-478a-bde9-12d42f6e605d, !- CustomDay1 Schedule:Day Name
  79f6dca9-5fe9-478a-bde9-12d42f6e605d; !- CustomDay2 Schedule:Day Name

Schedule:Week:Daily, NECB-D-Lighting_34,
  79f6dca9-5fe9-478a-bde9-12d42f6e605d, !- Sunday Schedule:Day Name
  03f89016-f015-4308-9cd2-91c3df1526ea, !- Monday Schedule:Day Name
  03f89016-f015-4308-9cd2-91c3df1526ea, !- Tuesday Schedule:Day Name
  03f89016-f015-4308-9cd2-91c3df1526ea, !- Wednesday Schedule:Day Name
  03f89016-f015-4308-9cd2-91c3df1526ea, !- Thursday Schedule:Day Name
  03f89016-f015-4308-9cd2-91c3df1526ea, !- Friday Schedule:Day Name
  79f6dca9-5fe9-478a-bde9-12d42f6e605d, !- Saturday Schedule:Day Name
  79f6dca9-5fe9-478a-bde9-12d42f6e605d, !- Holiday Schedule:Day Name
  79f6dca9-5fe9-478a-bde9-12d42f6e605d, !- SummerDesignDay Schedule:Day Name
  79f6dca9-5fe9-478a-bde9-12d42f6e605d, !- WinterDesignDay Schedule:Day Name
  79f6dca9-5fe9-478a-bde9-12d42f6e605d, !- CustomDay1 Schedule:Day Name
  79f6dca9-5fe9-478a-bde9-12d42f6e605d; !- CustomDay2 Schedule:Day Name

Schedule:Week:Daily, NECB-D-Lighting_35,
  79f6dca9-5fe9-478a-bde9-12d42f6e605d, !- Sunday Schedule:Day Name
  03f89016-f015-4308-9cd2-91c3df1526ea, !- Monday Schedule:Day Name
  03f89016-f015-4308-9cd2-91c3df1526ea, !- Tuesday Schedule:Day Name
  03f89016-f015-4308-9cd2-91c3df1526ea, !- Wednesday Schedule:Day Name
  03f89016-f015-4308-9cd2-91c3df1526ea, !- Thursday Schedule:Day Name
  03f89016-f015-4308-9cd2-91c3df1526ea, !- Friday Schedule:Day Name
  79f6dca9-5fe9-478a-bde9-12d42f6e605d, !- Saturday Schedule:Day Name
  79f6dca9-5fe9-478a-bde9-12d42f6e605d, !- Holiday Schedule:Day Name
  79f6dca9-5fe9-478a-bde9-12d42f6e605d, !- SummerDesignDay Schedule:Day Name
  79f6dca9-5fe9-478a-bde9-12d42f6e605d, !- WinterDesignDay Schedule:Day Name
  79f6dca9-5fe9-478a-bde9-12d42f6e605d, !- CustomDay1 Schedule:Day Name
  79f6dca9-5fe9-478a-bde9-12d42f6e605d; !- CustomDay2 Schedule:Day Name

Schedule:Week:Daily, NECB-D-Lighting_36,
  79f6dca9-5fe9-478a-bde9-12d42f6e605d, !- Sunday Schedule:Day Name
  03f89016-f015-4308-9cd2-91c3df1526ea, !- Monday Schedule:Day Name
  03f89016-f015-4308-9cd2-91c3df1526ea, !- Tuesday Schedule:Day Name
  03f89016-f015-4308-9cd2-91c3df1526ea, !- Wednesday Schedule:Day Name
  03f89016-f015-4308-9cd2-91c3df1526ea, !- Thursday Schedule:Day Name
  03f89016-f015-4308-9cd2-91c3df1526ea, !- Friday Schedule:Day Name
  79f6dca9-5fe9-478a-bde9-12d42f6e605d, !- Saturday Schedule:Day Name
  79f6dca9-5fe9-478a-bde9-12d42f6e605d, !- Holiday Schedule:Day Name
  79f6dca9-5fe9-478a-bde9-12d42f6e605d, !- SummerDesignDay Schedule:Day Name
  79f6dca9-5fe9-478a-bde9-12d42f6e605d, !- WinterDesignDay Schedule:Day Name
  79f6dca9-5fe9-478a-bde9-12d42f6e605d, !- CustomDay1 Schedule:Day Name
  79f6dca9-5fe9-478a-bde9-12d42f6e605d; !- CustomDay2 Schedule:Day Name

Schedule:Week:Daily, NECB-D-Lighting_37,
  79f6dca9-5fe9-478a-bde9-12d42f6e605d, !- Sunday Schedule:Day Name
  03f89016-f015-4308-9cd2-91c3df1526ea, !- Monday Schedule:Day Name
  03f89016-f015-4308-9cd2-91c3df1526ea, !- Tuesday Schedule:Day Name
  03f89016-f015-4308-9cd2-91c3df1526ea, !- Wednesday Schedule:Day Name
  03f89016-f015-4308-9cd2-91c3df1526ea, !- Thursday Schedule:Day Name
  03f89016-f015-4308-9cd2-91c3df1526ea, !- Friday Schedule:Day Name
  79f6dca9-5fe9-478a-bde9-12d42f6e605d, !- Saturday Schedule:Day Name
  79f6dca9-5fe9-478a-bde9-12d42f6e605d, !- Holiday Schedule:Day Name
  79f6dca9-5fe9-478a-bde9-12d42f6e605d, !- SummerDesignDay Schedule:Day Name
  79f6dca9-5fe9-478a-bde9-12d42f6e605d, !- WinterDesignDay Schedule:Day Name
  79f6dca9-5fe9-478a-bde9-12d42f6e605d, !- CustomDay1 Schedule:Day Name
  79f6dca9-5fe9-478a-bde9-12d42f6e605d; !- CustomDay2 Schedule:Day Name

Schedule:Week:Daily, NECB-D-Lighting_38,
  79f6dca9-5fe9-478a-bde9-12d42f6e605d, !- Sunday Schedule:Day Name
  03f89016-f015-4308-9cd2-91c3df1526ea, !- Monday Schedule:Day Name
  03f89016-f015-4308-9cd2-91c3df1526ea, !- Tuesday Schedule:Day Name
  03f89016-f015-4308-9cd2-91c3df1526ea, !- Wednesday Schedule:Day Name
  03f89016-f015-4308-9cd2-91c3df1526ea, !- Thursday Schedule:Day Name
  03f89016-f015-4308-9cd2-91c3df1526ea, !- Friday Schedule:Day Name
  79f6dca9-5fe9-478a-bde9-12d42f6e605d, !- Saturday Schedule:Day Name
  79f6dca9-5fe9-478a-bde9-12d42f6e605d, !- Holiday Schedule:Day Name
  79f6dca9-5fe9-478a-bde9-12d42f6e605d, !- SummerDesignDay Schedule:Day Name
  79f6dca9-5fe9-478a-bde9-12d42f6e605d, !- WinterDesignDay Schedule:Day Name
  79f6dca9-5fe9-478a-bde9-12d42f6e605d, !- CustomDay1 Schedule:Day Name
  79f6dca9-5fe9-478a-bde9-12d42f6e605d; !- CustomDay2 Schedule:Day Name

Schedule:Week:Daily, NECB-D-Lighting_39,
  79f6dca9-5fe9-478a-bde9-12d42f6e605d, !- Sunday Schedule:Day Name
  03f89016-f015-4308-9cd2-91c3df1526ea, !- Monday Schedule:Day Name
  03f89016-f015-4308-9cd2-91c3df1526ea, !- Tuesday Schedule:Day Name
  03f89016-f015-4308-9cd2-91c3df1526ea, !- Wednesday Schedule:Day Name
  03f89016-f015-4308-9cd2-91c3df1526ea, !- Thursday Schedule:Day Name
  03f89016-f015-4308-9cd2-91c3df1526ea, !- Friday Schedule:Day Name
  79f6dca9-5fe9-478a-bde9-12d42f6e605d, !- Saturday Schedule:Day Name
  79f6dca9-5fe9-478a-bde9-12d42f6e605d, !- Holiday Schedule:Day Name
  79f6dca9-5fe9-478a-bde9-12d42f6e605d, !- SummerDesignDay Schedule:Day Name
  79f6dca9-5fe9-478a-bde9-12d42f6e605d, !- WinterDesignDay Schedule:Day Name
  79f6dca9-5fe9-478a-bde9-12d42f6e605d, !- CustomDay1 Schedule:Day Name
  79f6dca9-5fe9-478a-bde9-12d42f6e605d; !- CustomDay2 Schedule:Day Name

Schedule:Week:Daily, NECB-D-Lighting_40,
  79f6dca9-5fe9-478a-bde9-12d42f6e605d, !- Sunday Schedule:Day Name
  03f89016-f015-4308-9cd2-91c3df1526ea, !- Monday Schedule:Day Name
  03f89016-f015-4308-9cd2-91c3df1526ea, !- Tuesday Schedule:Day Name
  03f89016-f015-4308-9cd2-91c3df1526ea, !- Wednesday Schedule:Day Name
  03f89016-f015-4308-9cd2-91c3df1526ea, !- Thursday Schedule:Day Name
  03f89016-f015-4308-9cd2-91c3df1526ea, !- Friday Schedule:Day Name
  79f6dca9-5fe9-478a-bde9-12d42f6e605d, !- Saturday Schedule:Day Name
  79f6dca9-5fe9-478a-bde9-12d42f6e605d, !- Holiday Schedule:Day Name
  79f6dca9-5fe9-478a-bde9-12d42f6e605d, !- SummerDesignDay Schedule:Day Name
  79f6dca9-5fe9-478a-bde9-12d42f6e605d, !- WinterDesignDay Schedule:Day Name
  79f6dca9-5fe9-478a-bde9-12d42f6e605d, !- CustomDay1 Schedule:Day Name
  79f6dca9-5fe9-478a-bde9-12d42f6e605d; !- CustomDay2 Schedule:Day Name

Schedule:Week:Daily, NECB-D-Lighting_41,
  79f6dca9-5fe9-478a-bde9-12d42f6e605d, !- Sunday Schedule:Day Name
  03f89016-f015-4308-9cd2-91c3df1526ea, !- Monday Schedule:Day Name
  03f89016-f015-4308-9cd2-91c3df1526ea, !- Tuesday Schedule:Day Name
  03f89016-f015-4308-9cd2-91c3df1526ea, !- Wednesday Schedule:Day Name
  03f89016-f015-4308-9cd2-91c3df1526ea, !- Thursday Schedule:Day Name
  03f89016-f015-4308-9cd2-91c3df1526ea, !- Friday Schedule:Day Name
  79f6dca9-5fe9-478a-bde9-12d42f6e605d, !- Saturday Schedule:Day Name
  79f6dca9-5fe9-478a-bde9-12d42f6e605d, !- Holiday Schedule:Day Name
  79f6dca9-5fe9-478a-bde9-12d42f6e605d, !- SummerDesignDay Schedule:Day Name
  79f6dca9-5fe9-478a-bde9-12d42f6e605d, !- WinterDesignDay Schedule:Day Name
  79f6dca9-5fe9-478a-bde9-12d42f6e605d, !- CustomDay1 Schedule:Day Name
  79f6dca9-5fe9-478a-bde9-12d42f6e605d; !- CustomDay2 Schedule:Day Name

Schedule:Week:Daily, NECB-D-Lighting_42,
  79f6dca9-5fe9-478a-bde9-12d42f6e605d, !- Sunday Schedule:Day Name
  03f89016-f015-4308-9cd2-91c3df1526ea, !- Monday Schedule:Day Name
  03f89016-f015-4308-9cd2-91c3df1526ea, !- Tuesday Schedule:Day Name
  03f89016-f015-4308-9cd2-91c3df1526ea, !- Wednesday Schedule:Day Name
  03f89016-f015-4308-9cd2-91c3df1526ea, !- Thursday Schedule:Day Name
  03f89016-f015-4308-9cd2-91c3df1526ea, !- Friday Schedule:Day Name
  79f6dca9-5fe9-478a-bde9-12d42f6e605d, !- Saturday Schedule:Day Name
  79f6dca9-5fe9-478a-bde9-12d42f6e605d, !- Holiday Schedule:Day Name
  79f6dca9-5fe9-478a-bde9-12d42f6e605d, !- SummerDesignDay Schedule:Day Name
  79f6dca9-5fe9-478a-bde9-12d42f6e605d, !- WinterDesignDay Schedule:Day Name
  79f6dca9-5fe9-478a-bde9-12d42f6e605d, !- CustomDay1 Schedule:Day Name
  79f6dca9-5fe9-478a-bde9-12d42f6e605d; !- CustomDay2 Schedule:Day Name

Schedule:Week:Daily, NECB-D-Lighting_43,
  79f6dca9-5fe9-478a-bde9-12d42f6e605d, !- Sunday Schedule:Day Name
  03f89016-f015-4308-9cd2-91c3df1526ea, !- Monday Schedule:Day Name
  03f89016-f015-4308-9cd2-91c3df1526ea, !- Tuesday Schedule:Day Name
  03f89016-f015-4308-9cd2-91c3df1526ea, !- Wednesday Schedule:Day Name
  03f89016-f015-4308-9cd2-91c3df1526ea, !- Thursday Schedule:Day Name
  03f89016-f015-4308-9cd2-91c3df1526ea, !- Friday Schedule:Day Name
  79f6dca9-5fe9-478a-bde9-12d42f6e605d, !- Saturday Schedule:Day Name
  79f6dca9-5fe9-478a-bde9-12d42f6e605d, !- Holiday Schedule:Day Name
  79f6dca9-5fe9-478a-bde9-12d42f6e605d, !- SummerDesignDay Schedule:Day Name
  79f6dca9-5fe9-478a-bde9-12d42f6e605d, !- WinterDesignDay Schedule:Day Name
  79f6dca9-5fe9-478a-bde9-12d42f6e605d, !- CustomDay1 Schedule:Day Name
  79f6dca9-5fe9-478a-bde9-12d42f6e605d; !- CustomDay2 Schedule:Day Name

Schedule:Week:Daily, NECB-D-Lighting_44,
  79f6dca9-5fe9-478a-bde9-12d42f6e605d, !- Sunday Schedule:Day Name
  03f89016-f015-4308-9cd2-91c3df1526ea, !- Monday Schedule:Day Name
  03f89016-f015-4308-9cd2-91c3df1526ea, !- Tuesday Schedule:Day Name
  03f89016-f015-4308-9cd2-91c3df1526ea, !- Wednesday Schedule:Day Name
  03f89016-f015-4308-9cd2-91c3df1526ea, !- Thursday Schedule:Day Name
  03f89016-f015-4308-9cd2-91c3df1526ea, !- Friday Schedule:Day Name
  79f6dca9-5fe9-478a-bde9-12d42f6e605d, !- Saturday Schedule:Day Name
  79f6dca9-5fe9-478a-bde9-12d42f6e605d, !- Holiday Schedule:Day Name
  79f6dca9-5fe9-478a-bde9-12d42f6e605d, !- SummerDesignDay Schedule:Day Name
  79f6dca9-5fe9-478a-bde9-12d42f6e605d, !- WinterDesignDay Schedule:Day Name
  79f6dca9-5fe9-478a-bde9-12d42f6e605d, !- CustomDay1 Schedule:Day Name
  79f6dca9-5fe9-478a-bde9-12d42f6e605d; !- CustomDay2 Schedule:Day Name

Schedule:Week:Daily, NECB-D-Lighting_45,
  79f6dca9-5fe9-478a-bde9-12d42f6e605d, !- Sunday Schedule:Day Name
  03f89016-f015-4308-9cd2-91c3df1526ea, !- Monday Schedule:Day Name
  03f89016-f015-4308-9cd2-91c3df1526ea, !- Tuesday Schedule:Day Name
  03f89016-f015-4308-9cd2-91c3df1526ea, !- Wednesday Schedule:Day Name
  03f89016-f015-4308-9cd2-91c3df1526ea, !- Thursday Schedule:Day Name
  03f89016-f015-4308-9cd2-91c3df1526ea, !- Friday Schedule:Day Name
  79f6dca9-5fe9-478a-bde9-12d42f6e605d, !- Saturday Schedule:Day Name
  79f6dca9-5fe9-478a-bde9-12d42f6e605d, !- Holiday Schedule:Day Name
  79f6dca9-5fe9-478a-bde9-12d42f6e605d, !- SummerDesignDay Schedule:Day Name
  79f6dca9-5fe9-478a-bde9-12d42f6e605d, !- WinterDesignDay Schedule:Day Name
  79f6dca9-5fe9-478a-bde9-12d42f6e605d, !- CustomDay1 Schedule:Day Name
  79f6dca9-5fe9-478a-bde9-12d42f6e605d; !- CustomDay2 Schedule:Day Name

Schedule:Week:Daily, NECB-D-Lighting_46,
  79f6dca9-5fe9-478a-bde9-12d42f6e605d, !- Sunday Schedule:Day Name
  03f89016-f015-4308-9cd2-91c3df1526ea, !- Monday Schedule:Day Name
  03f89016-f015-4308-9cd2-91c3df1526ea, !- Tuesday Schedule:Day Name
  03f89016-f015-4308-9cd2-91c3df1526ea, !- Wednesday Schedule:Day Name
  03f89016-f015-4308-9cd2-91c3df1526ea, !- Thursday Schedule:Day Name
  03f89016-f015-4308-9cd2-91c3df1526ea, !- Friday Schedule:Day Name
  79f6dca9-5fe9-478a-bde9-12d42f6e605d, !- Saturday Schedule:Day Name
  79f6dca9-5fe9-478a-bde9-12d42f6e605d, !- Holiday Schedule:Day Name
  79f6dca9-5fe9-478a-bde9-12d42f6e605d, !- SummerDesignDay Schedule:Day Name
  79f6dca9-5fe9-478a-bde9-12d42f6e605d, !- WinterDesignDay Schedule:Day Name
  79f6dca9-5fe9-478a-bde9-12d42f6e605d, !- CustomDay1 Schedule:Day Name
  79f6dca9-5fe9-478a-bde9-12d42f6e605d; !- CustomDay2 Schedule:Day Name

Schedule:Week:Daily, NECB-D-Lighting_47,
  79f6dca9-5fe9-478a-bde9-12d42f6e605d, !- Sunday Schedule:Day Name
  03f89016-f015-4308-9cd2-91c3df1526ea, !- Monday Schedule:Day Name
  03f89016-f015-4308-9cd2-91c3df1526ea, !- Tuesday Schedule:Day Name
  03f89016-f015-4308-9cd2-91c3df1526ea, !- Wednesday Schedule:Day Name
  03f89016-f015-4308-9cd2-91c3df1526ea, !- Thursday Schedule:Day Name
  03f89016-f015-4308-9cd2-91c3df1526ea, !- Friday Schedule:Day Name
  79f6dca9-5fe9-478a-bde9-12d42f6e605d, !- Saturday Schedule:Day Name
  79f6dca9-5fe9-478a-bde9-12d42f6e605d, !- Holiday Schedule:Day Name
  79f6dca9-5fe9-478a-bde9-12d42f6e605d, !- SummerDesignDay Schedule:Day Name
  79f6dca9-5fe9-478a-bde9-12d42f6e605d, !- WinterDesignDay Schedule:Day Name
  79f6dca9-5fe9-478a-bde9-12d42f6e605d, !- CustomDay1 Schedule:Day Name
  79f6dca9-5fe9-478a-bde9-12d42f6e605d; !- CustomDay2 Schedule:Day Name

Schedule:Week:Daily, NECB-D-Lighting_48,
  79f6dca9-5fe9-478a-bde9-12d42f6e605d, !- Sunday Schedule:Day Name
  03f89016-f015-4308-9cd2-91c3df1526ea, !- Monday Schedule:Day Name
  03f89016-f015-4308-9cd2-91c3df1526ea, !- Tuesday Schedule:Day Name
  03f89016-f015-4308-9cd2-91c3df1526ea, !- Wednesday Schedule:Day Name
  03f89016-f015-4308-9cd2-91c3df1526ea, !- Thursday Schedule:Day Name
  03f89016-f015-4308-9cd2-91c3df1526ea, !- Friday Schedule:Day Name
  79f6dca9-5fe9-478a-bde9-12d42f6e605d, !- Saturday Schedule:Day Name
  79f6dca9-5fe9-478a-bde9-12d42f6e605d, !- Holiday Schedule:Day Name
  79f6dca9-5fe9-478a-bde9-12d42f6e605d, !- SummerDesignDay Schedule:Day Name
  79f6dca9-5fe9-478a-bde9-12d42f6e605d, !- WinterDesignDay Schedule:Day Name
  79f6dca9-5fe9-478a-bde9-12d42f6e605d, !- CustomDay1 Schedule:Day Name
  79f6dca9-5fe9-478a-bde9-12d42f6e605d; !- CustomDay2 Schedule:Day Name

Schedule:Week:Daily, NECB-D-Lighting_49,
  79f6dca9-5fe9-478a-bde9-12d42f6e605d, !- Sunday Schedule:Day Name
  03f89016-f015-4308-9cd2-91c3df1526ea, !- Monday Schedule:Day Name
  03f89016-f015-4308-9cd2-91c3df1526ea, !- Tuesday Schedule:Day Name
  03f89016-f015-4308-9cd2-91c3df1526ea, !- Wednesday Schedule:Day Name
  03f89016-f015-4308-9cd2-91c3df1526ea, !- Thursday Schedule:Day Name
  03f89016-f015-4308-9cd2-91c3df1526ea, !- Friday Schedule:Day Name
  79f6dca9-5fe9-478a-bde9-12d42f6e605d, !- Saturday Schedule:Day Name
  79f6dca9-5fe9-478a-bde9-12d42f6e605d, !- Holiday Schedule:Day Name
  79f6dca9-5fe9-478a-bde9-12d42f6e605d, !- SummerDesignDay Schedule:Day Name
  79f6dca9-5fe9-478a-bde9-12d42f6e605d, !- WinterDesignDay Schedule:Day Name
  79f6dca9-5fe9-478a-bde9-12d42f6e605d, !- CustomDay1 Schedule:Day Name
  79f6dca9-5fe9-478a-bde9-12d42f6e605d; !- CustomDay2 Schedule:Day Name

Schedule:Week:Daily, NECB-D-Lighting_50,
  79f6dca9-5fe9-478a-bde9-12d42f6e605d, !- Sunday Schedule:Day Name
  03f89016-f015-4308-9cd2-91c3df1526ea, !- Monday Schedule:Day Name
  03f89016-f015-4308-9cd2-91c3df1526ea, !- Tuesday Schedule:Day Name
  03f89016-f015-4308-9cd2-91c3df1526ea, !- Wednesday Schedule:Day Name
  03f89016-f015-4308-9cd2-91c3df1526ea, !- Thursday Schedule:Day Name
  03f89016-f015-4308-9cd2-91c3df1526ea, !- Friday Schedule:Day Name
  79f6dca9-5fe9-478a-bde9-12d42f6e605d, !- Saturday Schedule:Day Name
  79f6dca9-5fe9-478a-bde9-12d42f6e605d, !- Holiday Schedule:Day Name
  79f6dca9-5fe9-478a-bde9-12d42f6e605d, !- SummerDesignDay Schedule:Day Name
  79f6dca9-5fe9-478a-bde9-12d42f6e605d, !- WinterDesignDay Schedule:Day Name
  79f6dca9-5fe9-478a-bde9-12d42f6e605d, !- CustomDay1 Schedule:Day Name
  79f6dca9-5fe9-478a-bde9-12d42f6e605d; !- CustomDay2 Schedule:Day Name

Schedule:Week:Daily, NECB-D-Lighting_51,
  79f6dca9-5fe9-478a-bde9-12d42f6e605d, !- Sunday Schedule:Day Name
  03f89016-f015-4308-9cd2-91c3df1526ea, !- Monday Schedule:Day Name
  03f89016-f015-4308-9cd2-91c3df1526ea, !- Tuesday Schedule:Day Name
  03f89016-f015-4308-9cd2-91c3df1526ea, !- Wednesday Schedule:Day Name
  03f89016-f015-4308-9cd2-91c3df1526ea, !- Thursday Schedule:Day Name
  03f89016-f015-4308-9cd2-91c3df1526ea, !- Friday Schedule:Day Name
  79f6dca9-5fe9-478a-bde9-12d42f6e605d, !- Saturday Schedule:Day Name
  79f6dca9-5fe9-478a-bde9-12d42f6e605d, !- Holiday Schedule:Day Name
  79f6dca9-5fe9-478a-bde9-12d42f6e605d, !- SummerDesignDay Schedule:Day Name
  79f6dca9-5fe9-478a-bde9-12d42f6e605d, !- WinterDesignDay Schedule:Day Name
  79f6dca9-5fe9-478a-bde9-12d42f6e605d, !- CustomDay1 Schedule:Day Name
  79f6dca9-5fe9-478a-bde9-12d42f6e605d; !- CustomDay2 Schedule:Day Name

Schedule:Week:Daily, NECB-D-Lighting_52,
  79f6dca9-5fe9-478a-bde9-12d42f6e605d, !- Sunday Schedule:Day Name
  79f6dca9-5fe9-478a-bde9-12d42f6e605d, !- Monday Schedule:Day Name
  79f6dca9-5fe9-478a-bde9-12d42f6e605d, !- Tuesday Schedule:Day Name
  79f6dca9-5fe9-478a-bde9-12d42f6e605d, !- Wednesday Schedule:Day Name
  79f6dca9-5fe9-478a-bde9-12d42f6e605d, !- Thursday Schedule:Day Name
  79f6dca9-5fe9-478a-bde9-12d42f6e605d, !- Friday Schedule:Day Name
  79f6dca9-5fe9-478a-bde9-12d42f6e605d, !- Saturday Schedule:Day Name
  79f6dca9-5fe9-478a-bde9-12d42f6e605d, !- Holiday Schedule:Day Name
  79f6dca9-5fe9-478a-bde9-12d42f6e605d, !- SummerDesignDay Schedule:Day Name
  79f6dca9-5fe9-478a-bde9-12d42f6e605d, !- WinterDesignDay Schedule:Day Name
  79f6dca9-5fe9-478a-bde9-12d42f6e605d, !- CustomDay1 Schedule:Day Name
  79f6dca9-5fe9-478a-bde9-12d42f6e605d; !- CustomDay2 Schedule:Day Name


Schedule:Year,NECB-D-Electric-Equipment,
Fraction,
NECB-D-Electric-Equipment_0,1,1,1,7, 
NECB-D-Electric-Equipment_1,1,8,1,14, 
NECB-D-Electric-Equipment_2,1,15,1,21, 
NECB-D-Electric-Equipment_3,1,22,1,28, 
NECB-D-Electric-Equipment_4,1,29,2,4, 
NECB-D-Electric-Equipment_5,2,5,2,11, 
NECB-D-Electric-Equipment_6,2,12,2,18, 
NECB-D-Electric-Equipment_7,2,19,2,25, 
NECB-D-Electric-Equipment_8,2,26,3,4, 
NECB-D-Electric-Equipment_9,3,5,3,11, 
NECB-D-Electric-Equipment_10,3,12,3,18, 
NECB-D-Electric-Equipment_11,3,19,3,25, 
NECB-D-Electric-Equipment_12,3,26,4,1, 
NECB-D-Electric-Equipment_13,4,2,4,8, 
NECB-D-Electric-Equipment_14,4,9,4,15, 
NECB-D-Electric-Equipment_15,4,16,4,22, 
NECB-D-Electric-Equipment_16,4,23,4,29, 
NECB-D-Electric-Equipment_17,4,30,5,6, 
NECB-D-Electric-Equipment_18,5,7,5,13, 
NECB-D-Electric-Equipment_19,5,14,5,20, 
NECB-D-Electric-Equipment_20,5,21,5,27, 
NECB-D-Electric-Equipment_21,5,28,6,3, 
NECB-D-Electric-Equipment_22,6,4,6,10, 
NECB-D-Electric-Equipment_23,6,11,6,17, 
NECB-D-Electric-Equipment_24,6,18,6,24, 
NECB-D-Electric-Equipment_25,6,25,7,1, 
NECB-D-Electric-Equipment_26,7,2,7,8, 
NECB-D-Electric-Equipment_27,7,9,7,15, 
NECB-D-Electric-Equipment_28,7,16,7,22, 
NECB-D-Electric-Equipment_29,7,23,7,29, 
NECB-D-Electric-Equipment_30,7,30,8,5, 
NECB-D-Electric-Equipment_31,8,6,8,12, 
NECB-D-Electric-Equipment_32,8,13,8,19, 
NECB-D-Electric-Equipment_33,8,20,8,26, 
NECB-D-Electric-Equipment_34,8,27,9,2, 
NECB-D-Electric-Equipment_35,9,3,9,9, 
NECB-D-Electric-Equipment_36,9,10,9,16, 
NECB-D-Electric-Equipment_37,9,17,9,23, 
NECB-D-Electric-Equipment_38,9,24,9,30, 
NECB-D-Electric-Equipment_39,10,1,10,7, 
NECB-D-Electric-Equipment_40,10,8,10,14, 
NECB-D-Electric-Equipment_41,10,15,10,21, 
NECB-D-Electric-Equipment_42,10,22,10,28, 
NECB-D-Electric-Equipment_43,10,29,11,4, 
NECB-D-Electric-Equipment_44,11,5,11,11, 
NECB-D-Electric-Equipment_45,11,12,11,18, 
NECB-D-Electric-Equipment_46,11,19,11,25, 
NECB-D-Electric-Equipment_47,11,26,12,2, 
NECB-D-Electric-Equipment_48,12,3,12,9, 
NECB-D-Electric-Equipment_49,12,10,12,16, 
NECB-D-Electric-Equipment_50,12,17,12,23, 
NECB-D-Electric-Equipment_51,12,24,12,30, 
NECB-D-Electric-Equipment_52,12,31,12,31;

Schedule:Week:Daily, NECB-D-Electric-Equipment_0,
  79f6dca9-5fe9-478a-bde9-12d42f6e605d, !- Sunday Schedule:Day Name
  03f89016-f015-4308-9cd2-91c3df1526ea, !- Monday Schedule:Day Name
  03f89016-f015-4308-9cd2-91c3df1526ea, !- Tuesday Schedule:Day Name
  03f89016-f015-4308-9cd2-91c3df1526ea, !- Wednesday Schedule:Day Name
  03f89016-f015-4308-9cd2-91c3df1526ea, !- Thursday Schedule:Day Name
  03f89016-f015-4308-9cd2-91c3df1526ea, !- Friday Schedule:Day Name
  79f6dca9-5fe9-478a-bde9-12d42f6e605d, !- Saturday Schedule:Day Name
  79f6dca9-5fe9-478a-bde9-12d42f6e605d, !- Holiday Schedule:Day Name
  79f6dca9-5fe9-478a-bde9-12d42f6e605d, !- SummerDesignDay Schedule:Day Name
  79f6dca9-5fe9-478a-bde9-12d42f6e605d, !- WinterDesignDay Schedule:Day Name
  79f6dca9-5fe9-478a-bde9-12d42f6e605d, !- CustomDay1 Schedule:Day Name
  79f6dca9-5fe9-478a-bde9-12d42f6e605d; !- CustomDay2 Schedule:Day Name

Schedule:Week:Daily, NECB-D-Electric-Equipment_1,
  79f6dca9-5fe9-478a-bde9-12d42f6e605d, !- Sunday Schedule:Day Name
  03f89016-f015-4308-9cd2-91c3df1526ea, !- Monday Schedule:Day Name
  03f89016-f015-4308-9cd2-91c3df1526ea, !- Tuesday Schedule:Day Name
  03f89016-f015-4308-9cd2-91c3df1526ea, !- Wednesday Schedule:Day Name
  03f89016-f015-4308-9cd2-91c3df1526ea, !- Thursday Schedule:Day Name
  03f89016-f015-4308-9cd2-91c3df1526ea, !- Friday Schedule:Day Name
  79f6dca9-5fe9-478a-bde9-12d42f6e605d, !- Saturday Schedule:Day Name
  79f6dca9-5fe9-478a-bde9-12d42f6e605d, !- Holiday Schedule:Day Name
  79f6dca9-5fe9-478a-bde9-12d42f6e605d, !- SummerDesignDay Schedule:Day Name
  79f6dca9-5fe9-478a-bde9-12d42f6e605d, !- WinterDesignDay Schedule:Day Name
  79f6dca9-5fe9-478a-bde9-12d42f6e605d, !- CustomDay1 Schedule:Day Name
  79f6dca9-5fe9-478a-bde9-12d42f6e605d; !- CustomDay2 Schedule:Day Name

Schedule:Week:Daily, NECB-D-Electric-Equipment_2,
  79f6dca9-5fe9-478a-bde9-12d42f6e605d, !- Sunday Schedule:Day Name
  03f89016-f015-4308-9cd2-91c3df1526ea, !- Monday Schedule:Day Name
  03f89016-f015-4308-9cd2-91c3df1526ea, !- Tuesday Schedule:Day Name
  03f89016-f015-4308-9cd2-91c3df1526ea, !- Wednesday Schedule:Day Name
  03f89016-f015-4308-9cd2-91c3df1526ea, !- Thursday Schedule:Day Name
  03f89016-f015-4308-9cd2-91c3df1526ea, !- Friday Schedule:Day Name
  79f6dca9-5fe9-478a-bde9-12d42f6e605d, !- Saturday Schedule:Day Name
  79f6dca9-5fe9-478a-bde9-12d42f6e605d, !- Holiday Schedule:Day Name
  79f6dca9-5fe9-478a-bde9-12d42f6e605d, !- SummerDesignDay Schedule:Day Name
  79f6dca9-5fe9-478a-bde9-12d42f6e605d, !- WinterDesignDay Schedule:Day Name
  79f6dca9-5fe9-478a-bde9-12d42f6e605d, !- CustomDay1 Schedule:Day Name
  79f6dca9-5fe9-478a-bde9-12d42f6e605d; !- CustomDay2 Schedule:Day Name

Schedule:Week:Daily, NECB-D-Electric-Equipment_3,
  79f6dca9-5fe9-478a-bde9-12d42f6e605d, !- Sunday Schedule:Day Name
  03f89016-f015-4308-9cd2-91c3df1526ea, !- Monday Schedule:Day Name
  03f89016-f015-4308-9cd2-91c3df1526ea, !- Tuesday Schedule:Day Name
  03f89016-f015-4308-9cd2-91c3df1526ea, !- Wednesday Schedule:Day Name
  03f89016-f015-4308-9cd2-91c3df1526ea, !- Thursday Schedule:Day Name
  03f89016-f015-4308-9cd2-91c3df1526ea, !- Friday Schedule:Day Name
  79f6dca9-5fe9-478a-bde9-12d42f6e605d, !- Saturday Schedule:Day Name
  79f6dca9-5fe9-478a-bde9-12d42f6e605d, !- Holiday Schedule:Day Name
  79f6dca9-5fe9-478a-bde9-12d42f6e605d, !- SummerDesignDay Schedule:Day Name
  79f6dca9-5fe9-478a-bde9-12d42f6e605d, !- WinterDesignDay Schedule:Day Name
  79f6dca9-5fe9-478a-bde9-12d42f6e605d, !- CustomDay1 Schedule:Day Name
  79f6dca9-5fe9-478a-bde9-12d42f6e605d; !- CustomDay2 Schedule:Day Name

Schedule:Week:Daily, NECB-D-Electric-Equipment_4,
  79f6dca9-5fe9-478a-bde9-12d42f6e605d, !- Sunday Schedule:Day Name
  03f89016-f015-4308-9cd2-91c3df1526ea, !- Monday Schedule:Day Name
  03f89016-f015-4308-9cd2-91c3df1526ea, !- Tuesday Schedule:Day Name
  03f89016-f015-4308-9cd2-91c3df1526ea, !- Wednesday Schedule:Day Name
  03f89016-f015-4308-9cd2-91c3df1526ea, !- Thursday Schedule:Day Name
  03f89016-f015-4308-9cd2-91c3df1526ea, !- Friday Schedule:Day Name
  79f6dca9-5fe9-478a-bde9-12d42f6e605d, !- Saturday Schedule:Day Name
  79f6dca9-5fe9-478a-bde9-12d42f6e605d, !- Holiday Schedule:Day Name
  79f6dca9-5fe9-478a-bde9-12d42f6e605d, !- SummerDesignDay Schedule:Day Name
  79f6dca9-5fe9-478a-bde9-12d42f6e605d, !- WinterDesignDay Schedule:Day Name
  79f6dca9-5fe9-478a-bde9-12d42f6e605d, !- CustomDay1 Schedule:Day Name
  79f6dca9-5fe9-478a-bde9-12d42f6e605d; !- CustomDay2 Schedule:Day Name

Schedule:Week:Daily, NECB-D-Electric-Equipment_5,
  79f6dca9-5fe9-478a-bde9-12d42f6e605d, !- Sunday Schedule:Day Name
  03f89016-f015-4308-9cd2-91c3df1526ea, !- Monday Schedule:Day Name
  03f89016-f015-4308-9cd2-91c3df1526ea, !- Tuesday Schedule:Day Name
  03f89016-f015-4308-9cd2-91c3df1526ea, !- Wednesday Schedule:Day Name
  03f89016-f015-4308-9cd2-91c3df1526ea, !- Thursday Schedule:Day Name
  03f89016-f015-4308-9cd2-91c3df1526ea, !- Friday Schedule:Day Name
  79f6dca9-5fe9-478a-bde9-12d42f6e605d, !- Saturday Schedule:Day Name
  79f6dca9-5fe9-478a-bde9-12d42f6e605d, !- Holiday Schedule:Day Name
  79f6dca9-5fe9-478a-bde9-12d42f6e605d, !- SummerDesignDay Schedule:Day Name
  79f6dca9-5fe9-478a-bde9-12d42f6e605d, !- WinterDesignDay Schedule:Day Name
  79f6dca9-5fe9-478a-bde9-12d42f6e605d, !- CustomDay1 Schedule:Day Name
  79f6dca9-5fe9-478a-bde9-12d42f6e605d; !- CustomDay2 Schedule:Day Name

Schedule:Week:Daily, NECB-D-Electric-Equipment_6,
  79f6dca9-5fe9-478a-bde9-12d42f6e605d, !- Sunday Schedule:Day Name
  03f89016-f015-4308-9cd2-91c3df1526ea, !- Monday Schedule:Day Name
  03f89016-f015-4308-9cd2-91c3df1526ea, !- Tuesday Schedule:Day Name
  03f89016-f015-4308-9cd2-91c3df1526ea, !- Wednesday Schedule:Day Name
  03f89016-f015-4308-9cd2-91c3df1526ea, !- Thursday Schedule:Day Name
  03f89016-f015-4308-9cd2-91c3df1526ea, !- Friday Schedule:Day Name
  79f6dca9-5fe9-478a-bde9-12d42f6e605d, !- Saturday Schedule:Day Name
  79f6dca9-5fe9-478a-bde9-12d42f6e605d, !- Holiday Schedule:Day Name
  79f6dca9-5fe9-478a-bde9-12d42f6e605d, !- SummerDesignDay Schedule:Day Name
  79f6dca9-5fe9-478a-bde9-12d42f6e605d, !- WinterDesignDay Schedule:Day Name
  79f6dca9-5fe9-478a-bde9-12d42f6e605d, !- CustomDay1 Schedule:Day Name
  79f6dca9-5fe9-478a-bde9-12d42f6e605d; !- CustomDay2 Schedule:Day Name

Schedule:Week:Daily, NECB-D-Electric-Equipment_7,
  79f6dca9-5fe9-478a-bde9-12d42f6e605d, !- Sunday Schedule:Day Name
  03f89016-f015-4308-9cd2-91c3df1526ea, !- Monday Schedule:Day Name
  03f89016-f015-4308-9cd2-91c3df1526ea, !- Tuesday Schedule:Day Name
  03f89016-f015-4308-9cd2-91c3df1526ea, !- Wednesday Schedule:Day Name
  03f89016-f015-4308-9cd2-91c3df1526ea, !- Thursday Schedule:Day Name
  03f89016-f015-4308-9cd2-91c3df1526ea, !- Friday Schedule:Day Name
  79f6dca9-5fe9-478a-bde9-12d42f6e605d, !- Saturday Schedule:Day Name
  79f6dca9-5fe9-478a-bde9-12d42f6e605d, !- Holiday Schedule:Day Name
  79f6dca9-5fe9-478a-bde9-12d42f6e605d, !- SummerDesignDay Schedule:Day Name
  79f6dca9-5fe9-478a-bde9-12d42f6e605d, !- WinterDesignDay Schedule:Day Name
  79f6dca9-5fe9-478a-bde9-12d42f6e605d, !- CustomDay1 Schedule:Day Name
  79f6dca9-5fe9-478a-bde9-12d42f6e605d; !- CustomDay2 Schedule:Day Name

Schedule:Week:Daily, NECB-D-Electric-Equipment_8,
  79f6dca9-5fe9-478a-bde9-12d42f6e605d, !- Sunday Schedule:Day Name
  03f89016-f015-4308-9cd2-91c3df1526ea, !- Monday Schedule:Day Name
  03f89016-f015-4308-9cd2-91c3df1526ea, !- Tuesday Schedule:Day Name
  03f89016-f015-4308-9cd2-91c3df1526ea, !- Wednesday Schedule:Day Name
  03f89016-f015-4308-9cd2-91c3df1526ea, !- Thursday Schedule:Day Name
  03f89016-f015-4308-9cd2-91c3df1526ea, !- Friday Schedule:Day Name
  79f6dca9-5fe9-478a-bde9-12d42f6e605d, !- Saturday Schedule:Day Name
  79f6dca9-5fe9-478a-bde9-12d42f6e605d, !- Holiday Schedule:Day Name
  79f6dca9-5fe9-478a-bde9-12d42f6e605d, !- SummerDesignDay Schedule:Day Name
  79f6dca9-5fe9-478a-bde9-12d42f6e605d, !- WinterDesignDay Schedule:Day Name
  79f6dca9-5fe9-478a-bde9-12d42f6e605d, !- CustomDay1 Schedule:Day Name
  79f6dca9-5fe9-478a-bde9-12d42f6e605d; !- CustomDay2 Schedule:Day Name

Schedule:Week:Daily, NECB-D-Electric-Equipment_9,
  79f6dca9-5fe9-478a-bde9-12d42f6e605d, !- Sunday Schedule:Day Name
  03f89016-f015-4308-9cd2-91c3df1526ea, !- Monday Schedule:Day Name
  03f89016-f015-4308-9cd2-91c3df1526ea, !- Tuesday Schedule:Day Name
  03f89016-f015-4308-9cd2-91c3df1526ea, !- Wednesday Schedule:Day Name
  03f89016-f015-4308-9cd2-91c3df1526ea, !- Thursday Schedule:Day Name
  03f89016-f015-4308-9cd2-91c3df1526ea, !- Friday Schedule:Day Name
  79f6dca9-5fe9-478a-bde9-12d42f6e605d, !- Saturday Schedule:Day Name
  79f6dca9-5fe9-478a-bde9-12d42f6e605d, !- Holiday Schedule:Day Name
  79f6dca9-5fe9-478a-bde9-12d42f6e605d, !- SummerDesignDay Schedule:Day Name
  79f6dca9-5fe9-478a-bde9-12d42f6e605d, !- WinterDesignDay Schedule:Day Name
  79f6dca9-5fe9-478a-bde9-12d42f6e605d, !- CustomDay1 Schedule:Day Name
  79f6dca9-5fe9-478a-bde9-12d42f6e605d; !- CustomDay2 Schedule:Day Name

Schedule:Week:Daily, NECB-D-Electric-Equipment_10,
  79f6dca9-5fe9-478a-bde9-12d42f6e605d, !- Sunday Schedule:Day Name
  03f89016-f015-4308-9cd2-91c3df1526ea, !- Monday Schedule:Day Name
  03f89016-f015-4308-9cd2-91c3df1526ea, !- Tuesday Schedule:Day Name
  03f89016-f015-4308-9cd2-91c3df1526ea, !- Wednesday Schedule:Day Name
  03f89016-f015-4308-9cd2-91c3df1526ea, !- Thursday Schedule:Day Name
  03f89016-f015-4308-9cd2-91c3df1526ea, !- Friday Schedule:Day Name
  79f6dca9-5fe9-478a-bde9-12d42f6e605d, !- Saturday Schedule:Day Name
  79f6dca9-5fe9-478a-bde9-12d42f6e605d, !- Holiday Schedule:Day Name
  79f6dca9-5fe9-478a-bde9-12d42f6e605d, !- SummerDesignDay Schedule:Day Name
  79f6dca9-5fe9-478a-bde9-12d42f6e605d, !- WinterDesignDay Schedule:Day Name
  79f6dca9-5fe9-478a-bde9-12d42f6e605d, !- CustomDay1 Schedule:Day Name
  79f6dca9-5fe9-478a-bde9-12d42f6e605d; !- CustomDay2 Schedule:Day Name

Schedule:Week:Daily, NECB-D-Electric-Equipment_11,
  79f6dca9-5fe9-478a-bde9-12d42f6e605d, !- Sunday Schedule:Day Name
  03f89016-f015-4308-9cd2-91c3df1526ea, !- Monday Schedule:Day Name
  03f89016-f015-4308-9cd2-91c3df1526ea, !- Tuesday Schedule:Day Name
  03f89016-f015-4308-9cd2-91c3df1526ea, !- Wednesday Schedule:Day Name
  03f89016-f015-4308-9cd2-91c3df1526ea, !- Thursday Schedule:Day Name
  03f89016-f015-4308-9cd2-91c3df1526ea, !- Friday Schedule:Day Name
  79f6dca9-5fe9-478a-bde9-12d42f6e605d, !- Saturday Schedule:Day Name
  79f6dca9-5fe9-478a-bde9-12d42f6e605d, !- Holiday Schedule:Day Name
  79f6dca9-5fe9-478a-bde9-12d42f6e605d, !- SummerDesignDay Schedule:Day Name
  79f6dca9-5fe9-478a-bde9-12d42f6e605d, !- WinterDesignDay Schedule:Day Name
  79f6dca9-5fe9-478a-bde9-12d42f6e605d, !- CustomDay1 Schedule:Day Name
  79f6dca9-5fe9-478a-bde9-12d42f6e605d; !- CustomDay2 Schedule:Day Name

Schedule:Week:Daily, NECB-D-Electric-Equipment_12,
  79f6dca9-5fe9-478a-bde9-12d42f6e605d, !- Sunday Schedule:Day Name
  03f89016-f015-4308-9cd2-91c3df1526ea, !- Monday Schedule:Day Name
  03f89016-f015-4308-9cd2-91c3df1526ea, !- Tuesday Schedule:Day Name
  03f89016-f015-4308-9cd2-91c3df1526ea, !- Wednesday Schedule:Day Name
  03f89016-f015-4308-9cd2-91c3df1526ea, !- Thursday Schedule:Day Name
  03f89016-f015-4308-9cd2-91c3df1526ea, !- Friday Schedule:Day Name
  79f6dca9-5fe9-478a-bde9-12d42f6e605d, !- Saturday Schedule:Day Name
  79f6dca9-5fe9-478a-bde9-12d42f6e605d, !- Holiday Schedule:Day Name
  79f6dca9-5fe9-478a-bde9-12d42f6e605d, !- SummerDesignDay Schedule:Day Name
  79f6dca9-5fe9-478a-bde9-12d42f6e605d, !- WinterDesignDay Schedule:Day Name
  79f6dca9-5fe9-478a-bde9-12d42f6e605d, !- CustomDay1 Schedule:Day Name
  79f6dca9-5fe9-478a-bde9-12d42f6e605d; !- CustomDay2 Schedule:Day Name

Schedule:Week:Daily, NECB-D-Electric-Equipment_13,
  79f6dca9-5fe9-478a-bde9-12d42f6e605d, !- Sunday Schedule:Day Name
  03f89016-f015-4308-9cd2-91c3df1526ea, !- Monday Schedule:Day Name
  03f89016-f015-4308-9cd2-91c3df1526ea, !- Tuesday Schedule:Day Name
  03f89016-f015-4308-9cd2-91c3df1526ea, !- Wednesday Schedule:Day Name
  03f89016-f015-4308-9cd2-91c3df1526ea, !- Thursday Schedule:Day Name
  03f89016-f015-4308-9cd2-91c3df1526ea, !- Friday Schedule:Day Name
  79f6dca9-5fe9-478a-bde9-12d42f6e605d, !- Saturday Schedule:Day Name
  79f6dca9-5fe9-478a-bde9-12d42f6e605d, !- Holiday Schedule:Day Name
  79f6dca9-5fe9-478a-bde9-12d42f6e605d, !- SummerDesignDay Schedule:Day Name
  79f6dca9-5fe9-478a-bde9-12d42f6e605d, !- WinterDesignDay Schedule:Day Name
  79f6dca9-5fe9-478a-bde9-12d42f6e605d, !- CustomDay1 Schedule:Day Name
  79f6dca9-5fe9-478a-bde9-12d42f6e605d; !- CustomDay2 Schedule:Day Name

Schedule:Week:Daily, NECB-D-Electric-Equipment_14,
  79f6dca9-5fe9-478a-bde9-12d42f6e605d, !- Sunday Schedule:Day Name
  03f89016-f015-4308-9cd2-91c3df1526ea, !- Monday Schedule:Day Name
  03f89016-f015-4308-9cd2-91c3df1526ea, !- Tuesday Schedule:Day Name
  03f89016-f015-4308-9cd2-91c3df1526ea, !- Wednesday Schedule:Day Name
  03f89016-f015-4308-9cd2-91c3df1526ea, !- Thursday Schedule:Day Name
  03f89016-f015-4308-9cd2-91c3df1526ea, !- Friday Schedule:Day Name
  79f6dca9-5fe9-478a-bde9-12d42f6e605d, !- Saturday Schedule:Day Name
  79f6dca9-5fe9-478a-bde9-12d42f6e605d, !- Holiday Schedule:Day Name
  79f6dca9-5fe9-478a-bde9-12d42f6e605d, !- SummerDesignDay Schedule:Day Name
  79f6dca9-5fe9-478a-bde9-12d42f6e605d, !- WinterDesignDay Schedule:Day Name
  79f6dca9-5fe9-478a-bde9-12d42f6e605d, !- CustomDay1 Schedule:Day Name
  79f6dca9-5fe9-478a-bde9-12d42f6e605d; !- CustomDay2 Schedule:Day Name

Schedule:Week:Daily, NECB-D-Electric-Equipment_15,
  79f6dca9-5fe9-478a-bde9-12d42f6e605d, !- Sunday Schedule:Day Name
  03f89016-f015-4308-9cd2-91c3df1526ea, !- Monday Schedule:Day Name
  03f89016-f015-4308-9cd2-91c3df1526ea, !- Tuesday Schedule:Day Name
  03f89016-f015-4308-9cd2-91c3df1526ea, !- Wednesday Schedule:Day Name
  03f89016-f015-4308-9cd2-91c3df1526ea, !- Thursday Schedule:Day Name
  03f89016-f015-4308-9cd2-91c3df1526ea, !- Friday Schedule:Day Name
  79f6dca9-5fe9-478a-bde9-12d42f6e605d, !- Saturday Schedule:Day Name
  79f6dca9-5fe9-478a-bde9-12d42f6e605d, !- Holiday Schedule:Day Name
  79f6dca9-5fe9-478a-bde9-12d42f6e605d, !- SummerDesignDay Schedule:Day Name
  79f6dca9-5fe9-478a-bde9-12d42f6e605d, !- WinterDesignDay Schedule:Day Name
  79f6dca9-5fe9-478a-bde9-12d42f6e605d, !- CustomDay1 Schedule:Day Name
  79f6dca9-5fe9-478a-bde9-12d42f6e605d; !- CustomDay2 Schedule:Day Name

Schedule:Week:Daily, NECB-D-Electric-Equipment_16,
  79f6dca9-5fe9-478a-bde9-12d42f6e605d, !- Sunday Schedule:Day Name
  03f89016-f015-4308-9cd2-91c3df1526ea, !- Monday Schedule:Day Name
  03f89016-f015-4308-9cd2-91c3df1526ea, !- Tuesday Schedule:Day Name
  03f89016-f015-4308-9cd2-91c3df1526ea, !- Wednesday Schedule:Day Name
  03f89016-f015-4308-9cd2-91c3df1526ea, !- Thursday Schedule:Day Name
  03f89016-f015-4308-9cd2-91c3df1526ea, !- Friday Schedule:Day Name
  79f6dca9-5fe9-478a-bde9-12d42f6e605d, !- Saturday Schedule:Day Name
  79f6dca9-5fe9-478a-bde9-12d42f6e605d, !- Holiday Schedule:Day Name
  79f6dca9-5fe9-478a-bde9-12d42f6e605d, !- SummerDesignDay Schedule:Day Name
  79f6dca9-5fe9-478a-bde9-12d42f6e605d, !- WinterDesignDay Schedule:Day Name
  79f6dca9-5fe9-478a-bde9-12d42f6e605d, !- CustomDay1 Schedule:Day Name
  79f6dca9-5fe9-478a-bde9-12d42f6e605d; !- CustomDay2 Schedule:Day Name

Schedule:Week:Daily, NECB-D-Electric-Equipment_17,
  79f6dca9-5fe9-478a-bde9-12d42f6e605d, !- Sunday Schedule:Day Name
  03f89016-f015-4308-9cd2-91c3df1526ea, !- Monday Schedule:Day Name
  03f89016-f015-4308-9cd2-91c3df1526ea, !- Tuesday Schedule:Day Name
  03f89016-f015-4308-9cd2-91c3df1526ea, !- Wednesday Schedule:Day Name
  03f89016-f015-4308-9cd2-91c3df1526ea, !- Thursday Schedule:Day Name
  03f89016-f015-4308-9cd2-91c3df1526ea, !- Friday Schedule:Day Name
  79f6dca9-5fe9-478a-bde9-12d42f6e605d, !- Saturday Schedule:Day Name
  79f6dca9-5fe9-478a-bde9-12d42f6e605d, !- Holiday Schedule:Day Name
  79f6dca9-5fe9-478a-bde9-12d42f6e605d, !- SummerDesignDay Schedule:Day Name
  79f6dca9-5fe9-478a-bde9-12d42f6e605d, !- WinterDesignDay Schedule:Day Name
  79f6dca9-5fe9-478a-bde9-12d42f6e605d, !- CustomDay1 Schedule:Day Name
  79f6dca9-5fe9-478a-bde9-12d42f6e605d; !- CustomDay2 Schedule:Day Name

Schedule:Week:Daily, NECB-D-Electric-Equipment_18,
  79f6dca9-5fe9-478a-bde9-12d42f6e605d, !- Sunday Schedule:Day Name
  03f89016-f015-4308-9cd2-91c3df1526ea, !- Monday Schedule:Day Name
  03f89016-f015-4308-9cd2-91c3df1526ea, !- Tuesday Schedule:Day Name
  03f89016-f015-4308-9cd2-91c3df1526ea, !- Wednesday Schedule:Day Name
  03f89016-f015-4308-9cd2-91c3df1526ea, !- Thursday Schedule:Day Name
  03f89016-f015-4308-9cd2-91c3df1526ea, !- Friday Schedule:Day Name
  79f6dca9-5fe9-478a-bde9-12d42f6e605d, !- Saturday Schedule:Day Name
  79f6dca9-5fe9-478a-bde9-12d42f6e605d, !- Holiday Schedule:Day Name
  79f6dca9-5fe9-478a-bde9-12d42f6e605d, !- SummerDesignDay Schedule:Day Name
  79f6dca9-5fe9-478a-bde9-12d42f6e605d, !- WinterDesignDay Schedule:Day Name
  79f6dca9-5fe9-478a-bde9-12d42f6e605d, !- CustomDay1 Schedule:Day Name
  79f6dca9-5fe9-478a-bde9-12d42f6e605d; !- CustomDay2 Schedule:Day Name

Schedule:Week:Daily, NECB-D-Electric-Equipment_19,
  79f6dca9-5fe9-478a-bde9-12d42f6e605d, !- Sunday Schedule:Day Name
  03f89016-f015-4308-9cd2-91c3df1526ea, !- Monday Schedule:Day Name
  03f89016-f015-4308-9cd2-91c3df1526ea, !- Tuesday Schedule:Day Name
  03f89016-f015-4308-9cd2-91c3df1526ea, !- Wednesday Schedule:Day Name
  03f89016-f015-4308-9cd2-91c3df1526ea, !- Thursday Schedule:Day Name
  03f89016-f015-4308-9cd2-91c3df1526ea, !- Friday Schedule:Day Name
  79f6dca9-5fe9-478a-bde9-12d42f6e605d, !- Saturday Schedule:Day Name
  79f6dca9-5fe9-478a-bde9-12d42f6e605d, !- Holiday Schedule:Day Name
  79f6dca9-5fe9-478a-bde9-12d42f6e605d, !- SummerDesignDay Schedule:Day Name
  79f6dca9-5fe9-478a-bde9-12d42f6e605d, !- WinterDesignDay Schedule:Day Name
  79f6dca9-5fe9-478a-bde9-12d42f6e605d, !- CustomDay1 Schedule:Day Name
  79f6dca9-5fe9-478a-bde9-12d42f6e605d; !- CustomDay2 Schedule:Day Name

Schedule:Week:Daily, NECB-D-Electric-Equipment_20,
  79f6dca9-5fe9-478a-bde9-12d42f6e605d, !- Sunday Schedule:Day Name
  03f89016-f015-4308-9cd2-91c3df1526ea, !- Monday Schedule:Day Name
  03f89016-f015-4308-9cd2-91c3df1526ea, !- Tuesday Schedule:Day Name
  03f89016-f015-4308-9cd2-91c3df1526ea, !- Wednesday Schedule:Day Name
  03f89016-f015-4308-9cd2-91c3df1526ea, !- Thursday Schedule:Day Name
  03f89016-f015-4308-9cd2-91c3df1526ea, !- Friday Schedule:Day Name
  79f6dca9-5fe9-478a-bde9-12d42f6e605d, !- Saturday Schedule:Day Name
  79f6dca9-5fe9-478a-bde9-12d42f6e605d, !- Holiday Schedule:Day Name
  79f6dca9-5fe9-478a-bde9-12d42f6e605d, !- SummerDesignDay Schedule:Day Name
  79f6dca9-5fe9-478a-bde9-12d42f6e605d, !- WinterDesignDay Schedule:Day Name
  79f6dca9-5fe9-478a-bde9-12d42f6e605d, !- CustomDay1 Schedule:Day Name
  79f6dca9-5fe9-478a-bde9-12d42f6e605d; !- CustomDay2 Schedule:Day Name

Schedule:Week:Daily, NECB-D-Electric-Equipment_21,
  79f6dca9-5fe9-478a-bde9-12d42f6e605d, !- Sunday Schedule:Day Name
  03f89016-f015-4308-9cd2-91c3df1526ea, !- Monday Schedule:Day Name
  03f89016-f015-4308-9cd2-91c3df1526ea, !- Tuesday Schedule:Day Name
  03f89016-f015-4308-9cd2-91c3df1526ea, !- Wednesday Schedule:Day Name
  03f89016-f015-4308-9cd2-91c3df1526ea, !- Thursday Schedule:Day Name
  03f89016-f015-4308-9cd2-91c3df1526ea, !- Friday Schedule:Day Name
  79f6dca9-5fe9-478a-bde9-12d42f6e605d, !- Saturday Schedule:Day Name
  79f6dca9-5fe9-478a-bde9-12d42f6e605d, !- Holiday Schedule:Day Name
  79f6dca9-5fe9-478a-bde9-12d42f6e605d, !- SummerDesignDay Schedule:Day Name
  79f6dca9-5fe9-478a-bde9-12d42f6e605d, !- WinterDesignDay Schedule:Day Name
  79f6dca9-5fe9-478a-bde9-12d42f6e605d, !- CustomDay1 Schedule:Day Name
  79f6dca9-5fe9-478a-bde9-12d42f6e605d; !- CustomDay2 Schedule:Day Name

Schedule:Week:Daily, NECB-D-Electric-Equipment_22,
  79f6dca9-5fe9-478a-bde9-12d42f6e605d, !- Sunday Schedule:Day Name
  03f89016-f015-4308-9cd2-91c3df1526ea, !- Monday Schedule:Day Name
  03f89016-f015-4308-9cd2-91c3df1526ea, !- Tuesday Schedule:Day Name
  03f89016-f015-4308-9cd2-91c3df1526ea, !- Wednesday Schedule:Day Name
  03f89016-f015-4308-9cd2-91c3df1526ea, !- Thursday Schedule:Day Name
  03f89016-f015-4308-9cd2-91c3df1526ea, !- Friday Schedule:Day Name
  79f6dca9-5fe9-478a-bde9-12d42f6e605d, !- Saturday Schedule:Day Name
  79f6dca9-5fe9-478a-bde9-12d42f6e605d, !- Holiday Schedule:Day Name
  79f6dca9-5fe9-478a-bde9-12d42f6e605d, !- SummerDesignDay Schedule:Day Name
  79f6dca9-5fe9-478a-bde9-12d42f6e605d, !- WinterDesignDay Schedule:Day Name
  79f6dca9-5fe9-478a-bde9-12d42f6e605d, !- CustomDay1 Schedule:Day Name
  79f6dca9-5fe9-478a-bde9-12d42f6e605d; !- CustomDay2 Schedule:Day Name

Schedule:Week:Daily, NECB-D-Electric-Equipment_23,
  79f6dca9-5fe9-478a-bde9-12d42f6e605d, !- Sunday Schedule:Day Name
  03f89016-f015-4308-9cd2-91c3df1526ea, !- Monday Schedule:Day Name
  03f89016-f015-4308-9cd2-91c3df1526ea, !- Tuesday Schedule:Day Name
  03f89016-f015-4308-9cd2-91c3df1526ea, !- Wednesday Schedule:Day Name
  03f89016-f015-4308-9cd2-91c3df1526ea, !- Thursday Schedule:Day Name
  03f89016-f015-4308-9cd2-91c3df1526ea, !- Friday Schedule:Day Name
  79f6dca9-5fe9-478a-bde9-12d42f6e605d, !- Saturday Schedule:Day Name
  79f6dca9-5fe9-478a-bde9-12d42f6e605d, !- Holiday Schedule:Day Name
  79f6dca9-5fe9-478a-bde9-12d42f6e605d, !- SummerDesignDay Schedule:Day Name
  79f6dca9-5fe9-478a-bde9-12d42f6e605d, !- WinterDesignDay Schedule:Day Name
  79f6dca9-5fe9-478a-bde9-12d42f6e605d, !- CustomDay1 Schedule:Day Name
  79f6dca9-5fe9-478a-bde9-12d42f6e605d; !- CustomDay2 Schedule:Day Name

Schedule:Week:Daily, NECB-D-Electric-Equipment_24,
  79f6dca9-5fe9-478a-bde9-12d42f6e605d, !- Sunday Schedule:Day Name
  03f89016-f015-4308-9cd2-91c3df1526ea, !- Monday Schedule:Day Name
  03f89016-f015-4308-9cd2-91c3df1526ea, !- Tuesday Schedule:Day Name
  03f89016-f015-4308-9cd2-91c3df1526ea, !- Wednesday Schedule:Day Name
  03f89016-f015-4308-9cd2-91c3df1526ea, !- Thursday Schedule:Day Name
  03f89016-f015-4308-9cd2-91c3df1526ea, !- Friday Schedule:Day Name
  79f6dca9-5fe9-478a-bde9-12d42f6e605d, !- Saturday Schedule:Day Name
  79f6dca9-5fe9-478a-bde9-12d42f6e605d, !- Holiday Schedule:Day Name
  79f6dca9-5fe9-478a-bde9-12d42f6e605d, !- SummerDesignDay Schedule:Day Name
  79f6dca9-5fe9-478a-bde9-12d42f6e605d, !- WinterDesignDay Schedule:Day Name
  79f6dca9-5fe9-478a-bde9-12d42f6e605d, !- CustomDay1 Schedule:Day Name
  79f6dca9-5fe9-478a-bde9-12d42f6e605d; !- CustomDay2 Schedule:Day Name

Schedule:Week:Daily, NECB-D-Electric-Equipment_25,
  79f6dca9-5fe9-478a-bde9-12d42f6e605d, !- Sunday Schedule:Day Name
  03f89016-f015-4308-9cd2-91c3df1526ea, !- Monday Schedule:Day Name
  03f89016-f015-4308-9cd2-91c3df1526ea, !- Tuesday Schedule:Day Name
  03f89016-f015-4308-9cd2-91c3df1526ea, !- Wednesday Schedule:Day Name
  03f89016-f015-4308-9cd2-91c3df1526ea, !- Thursday Schedule:Day Name
  03f89016-f015-4308-9cd2-91c3df1526ea, !- Friday Schedule:Day Name
  79f6dca9-5fe9-478a-bde9-12d42f6e605d, !- Saturday Schedule:Day Name
  79f6dca9-5fe9-478a-bde9-12d42f6e605d, !- Holiday Schedule:Day Name
  79f6dca9-5fe9-478a-bde9-12d42f6e605d, !- SummerDesignDay Schedule:Day Name
  79f6dca9-5fe9-478a-bde9-12d42f6e605d, !- WinterDesignDay Schedule:Day Name
  79f6dca9-5fe9-478a-bde9-12d42f6e605d, !- CustomDay1 Schedule:Day Name
  79f6dca9-5fe9-478a-bde9-12d42f6e605d; !- CustomDay2 Schedule:Day Name

Schedule:Week:Daily, NECB-D-Electric-Equipment_26,
  79f6dca9-5fe9-478a-bde9-12d42f6e605d, !- Sunday Schedule:Day Name
  03f89016-f015-4308-9cd2-91c3df1526ea, !- Monday Schedule:Day Name
  03f89016-f015-4308-9cd2-91c3df1526ea, !- Tuesday Schedule:Day Name
  03f89016-f015-4308-9cd2-91c3df1526ea, !- Wednesday Schedule:Day Name
  03f89016-f015-4308-9cd2-91c3df1526ea, !- Thursday Schedule:Day Name
  03f89016-f015-4308-9cd2-91c3df1526ea, !- Friday Schedule:Day Name
  79f6dca9-5fe9-478a-bde9-12d42f6e605d, !- Saturday Schedule:Day Name
  79f6dca9-5fe9-478a-bde9-12d42f6e605d, !- Holiday Schedule:Day Name
  79f6dca9-5fe9-478a-bde9-12d42f6e605d, !- SummerDesignDay Schedule:Day Name
  79f6dca9-5fe9-478a-bde9-12d42f6e605d, !- WinterDesignDay Schedule:Day Name
  79f6dca9-5fe9-478a-bde9-12d42f6e605d, !- CustomDay1 Schedule:Day Name
  79f6dca9-5fe9-478a-bde9-12d42f6e605d; !- CustomDay2 Schedule:Day Name

Schedule:Week:Daily, NECB-D-Electric-Equipment_27,
  79f6dca9-5fe9-478a-bde9-12d42f6e605d, !- Sunday Schedule:Day Name
  03f89016-f015-4308-9cd2-91c3df1526ea, !- Monday Schedule:Day Name
  03f89016-f015-4308-9cd2-91c3df1526ea, !- Tuesday Schedule:Day Name
  03f89016-f015-4308-9cd2-91c3df1526ea, !- Wednesday Schedule:Day Name
  03f89016-f015-4308-9cd2-91c3df1526ea, !- Thursday Schedule:Day Name
  03f89016-f015-4308-9cd2-91c3df1526ea, !- Friday Schedule:Day Name
  79f6dca9-5fe9-478a-bde9-12d42f6e605d, !- Saturday Schedule:Day Name
  79f6dca9-5fe9-478a-bde9-12d42f6e605d, !- Holiday Schedule:Day Name
  79f6dca9-5fe9-478a-bde9-12d42f6e605d, !- SummerDesignDay Schedule:Day Name
  79f6dca9-5fe9-478a-bde9-12d42f6e605d, !- WinterDesignDay Schedule:Day Name
  79f6dca9-5fe9-478a-bde9-12d42f6e605d, !- CustomDay1 Schedule:Day Name
  79f6dca9-5fe9-478a-bde9-12d42f6e605d; !- CustomDay2 Schedule:Day Name

Schedule:Week:Daily, NECB-D-Electric-Equipment_28,
  79f6dca9-5fe9-478a-bde9-12d42f6e605d, !- Sunday Schedule:Day Name
  03f89016-f015-4308-9cd2-91c3df1526ea, !- Monday Schedule:Day Name
  03f89016-f015-4308-9cd2-91c3df1526ea, !- Tuesday Schedule:Day Name
  03f89016-f015-4308-9cd2-91c3df1526ea, !- Wednesday Schedule:Day Name
  03f89016-f015-4308-9cd2-91c3df1526ea, !- Thursday Schedule:Day Name
  03f89016-f015-4308-9cd2-91c3df1526ea, !- Friday Schedule:Day Name
  79f6dca9-5fe9-478a-bde9-12d42f6e605d, !- Saturday Schedule:Day Name
  79f6dca9-5fe9-478a-bde9-12d42f6e605d, !- Holiday Schedule:Day Name
  79f6dca9-5fe9-478a-bde9-12d42f6e605d, !- SummerDesignDay Schedule:Day Name
  79f6dca9-5fe9-478a-bde9-12d42f6e605d, !- WinterDesignDay Schedule:Day Name
  79f6dca9-5fe9-478a-bde9-12d42f6e605d, !- CustomDay1 Schedule:Day Name
  79f6dca9-5fe9-478a-bde9-12d42f6e605d; !- CustomDay2 Schedule:Day Name

Schedule:Week:Daily, NECB-D-Electric-Equipment_29,
  79f6dca9-5fe9-478a-bde9-12d42f6e605d, !- Sunday Schedule:Day Name
  03f89016-f015-4308-9cd2-91c3df1526ea, !- Monday Schedule:Day Name
  03f89016-f015-4308-9cd2-91c3df1526ea, !- Tuesday Schedule:Day Name
  03f89016-f015-4308-9cd2-91c3df1526ea, !- Wednesday Schedule:Day Name
  03f89016-f015-4308-9cd2-91c3df1526ea, !- Thursday Schedule:Day Name
  03f89016-f015-4308-9cd2-91c3df1526ea, !- Friday Schedule:Day Name
  79f6dca9-5fe9-478a-bde9-12d42f6e605d, !- Saturday Schedule:Day Name
  79f6dca9-5fe9-478a-bde9-12d42f6e605d, !- Holiday Schedule:Day Name
  79f6dca9-5fe9-478a-bde9-12d42f6e605d, !- SummerDesignDay Schedule:Day Name
  79f6dca9-5fe9-478a-bde9-12d42f6e605d, !- WinterDesignDay Schedule:Day Name
  79f6dca9-5fe9-478a-bde9-12d42f6e605d, !- CustomDay1 Schedule:Day Name
  79f6dca9-5fe9-478a-bde9-12d42f6e605d; !- CustomDay2 Schedule:Day Name

Schedule:Week:Daily, NECB-D-Electric-Equipment_30,
  79f6dca9-5fe9-478a-bde9-12d42f6e605d, !- Sunday Schedule:Day Name
  03f89016-f015-4308-9cd2-91c3df1526ea, !- Monday Schedule:Day Name
  03f89016-f015-4308-9cd2-91c3df1526ea, !- Tuesday Schedule:Day Name
  03f89016-f015-4308-9cd2-91c3df1526ea, !- Wednesday Schedule:Day Name
  03f89016-f015-4308-9cd2-91c3df1526ea, !- Thursday Schedule:Day Name
  03f89016-f015-4308-9cd2-91c3df1526ea, !- Friday Schedule:Day Name
  79f6dca9-5fe9-478a-bde9-12d42f6e605d, !- Saturday Schedule:Day Name
  79f6dca9-5fe9-478a-bde9-12d42f6e605d, !- Holiday Schedule:Day Name
  79f6dca9-5fe9-478a-bde9-12d42f6e605d, !- SummerDesignDay Schedule:Day Name
  79f6dca9-5fe9-478a-bde9-12d42f6e605d, !- WinterDesignDay Schedule:Day Name
  79f6dca9-5fe9-478a-bde9-12d42f6e605d, !- CustomDay1 Schedule:Day Name
  79f6dca9-5fe9-478a-bde9-12d42f6e605d; !- CustomDay2 Schedule:Day Name

Schedule:Week:Daily, NECB-D-Electric-Equipment_31,
  79f6dca9-5fe9-478a-bde9-12d42f6e605d, !- Sunday Schedule:Day Name
  03f89016-f015-4308-9cd2-91c3df1526ea, !- Monday Schedule:Day Name
  03f89016-f015-4308-9cd2-91c3df1526ea, !- Tuesday Schedule:Day Name
  03f89016-f015-4308-9cd2-91c3df1526ea, !- Wednesday Schedule:Day Name
  03f89016-f015-4308-9cd2-91c3df1526ea, !- Thursday Schedule:Day Name
  03f89016-f015-4308-9cd2-91c3df1526ea, !- Friday Schedule:Day Name
  79f6dca9-5fe9-478a-bde9-12d42f6e605d, !- Saturday Schedule:Day Name
  79f6dca9-5fe9-478a-bde9-12d42f6e605d, !- Holiday Schedule:Day Name
  79f6dca9-5fe9-478a-bde9-12d42f6e605d, !- SummerDesignDay Schedule:Day Name
  79f6dca9-5fe9-478a-bde9-12d42f6e605d, !- WinterDesignDay Schedule:Day Name
  79f6dca9-5fe9-478a-bde9-12d42f6e605d, !- CustomDay1 Schedule:Day Name
  79f6dca9-5fe9-478a-bde9-12d42f6e605d; !- CustomDay2 Schedule:Day Name

Schedule:Week:Daily, NECB-D-Electric-Equipment_32,
  79f6dca9-5fe9-478a-bde9-12d42f6e605d, !- Sunday Schedule:Day Name
  03f89016-f015-4308-9cd2-91c3df1526ea, !- Monday Schedule:Day Name
  03f89016-f015-4308-9cd2-91c3df1526ea, !- Tuesday Schedule:Day Name
  03f89016-f015-4308-9cd2-91c3df1526ea, !- Wednesday Schedule:Day Name
  03f89016-f015-4308-9cd2-91c3df1526ea, !- Thursday Schedule:Day Name
  03f89016-f015-4308-9cd2-91c3df1526ea, !- Friday Schedule:Day Name
  79f6dca9-5fe9-478a-bde9-12d42f6e605d, !- Saturday Schedule:Day Name
  79f6dca9-5fe9-478a-bde9-12d42f6e605d, !- Holiday Schedule:Day Name
  79f6dca9-5fe9-478a-bde9-12d42f6e605d, !- SummerDesignDay Schedule:Day Name
  79f6dca9-5fe9-478a-bde9-12d42f6e605d, !- WinterDesignDay Schedule:Day Name
  79f6dca9-5fe9-478a-bde9-12d42f6e605d, !- CustomDay1 Schedule:Day Name
  79f6dca9-5fe9-478a-bde9-12d42f6e605d; !- CustomDay2 Schedule:Day Name

Schedule:Week:Daily, NECB-D-Electric-Equipment_33,
  79f6dca9-5fe9-478a-bde9-12d42f6e605d, !- Sunday Schedule:Day Name
  03f89016-f015-4308-9cd2-91c3df1526ea, !- Monday Schedule:Day Name
  03f89016-f015-4308-9cd2-91c3df1526ea, !- Tuesday Schedule:Day Name
  03f89016-f015-4308-9cd2-91c3df1526ea, !- Wednesday Schedule:Day Name
  03f89016-f015-4308-9cd2-91c3df1526ea, !- Thursday Schedule:Day Name
  03f89016-f015-4308-9cd2-91c3df1526ea, !- Friday Schedule:Day Name
  79f6dca9-5fe9-478a-bde9-12d42f6e605d, !- Saturday Schedule:Day Name
  79f6dca9-5fe9-478a-bde9-12d42f6e605d, !- Holiday Schedule:Day Name
  79f6dca9-5fe9-478a-bde9-12d42f6e605d, !- SummerDesignDay Schedule:Day Name
  79f6dca9-5fe9-478a-bde9-12d42f6e605d, !- WinterDesignDay Schedule:Day Name
  79f6dca9-5fe9-478a-bde9-12d42f6e605d, !- CustomDay1 Schedule:Day Name
  79f6dca9-5fe9-478a-bde9-12d42f6e605d; !- CustomDay2 Schedule:Day Name

Schedule:Week:Daily, NECB-D-Electric-Equipment_34,
  79f6dca9-5fe9-478a-bde9-12d42f6e605d, !- Sunday Schedule:Day Name
  03f89016-f015-4308-9cd2-91c3df1526ea, !- Monday Schedule:Day Name
  03f89016-f015-4308-9cd2-91c3df1526ea, !- Tuesday Schedule:Day Name
  03f89016-f015-4308-9cd2-91c3df1526ea, !- Wednesday Schedule:Day Name
  03f89016-f015-4308-9cd2-91c3df1526ea, !- Thursday Schedule:Day Name
  03f89016-f015-4308-9cd2-91c3df1526ea, !- Friday Schedule:Day Name
  79f6dca9-5fe9-478a-bde9-12d42f6e605d, !- Saturday Schedule:Day Name
  79f6dca9-5fe9-478a-bde9-12d42f6e605d, !- Holiday Schedule:Day Name
  79f6dca9-5fe9-478a-bde9-12d42f6e605d, !- SummerDesignDay Schedule:Day Name
  79f6dca9-5fe9-478a-bde9-12d42f6e605d, !- WinterDesignDay Schedule:Day Name
  79f6dca9-5fe9-478a-bde9-12d42f6e605d, !- CustomDay1 Schedule:Day Name
  79f6dca9-5fe9-478a-bde9-12d42f6e605d; !- CustomDay2 Schedule:Day Name

Schedule:Week:Daily, NECB-D-Electric-Equipment_35,
  79f6dca9-5fe9-478a-bde9-12d42f6e605d, !- Sunday Schedule:Day Name
  03f89016-f015-4308-9cd2-91c3df1526ea, !- Monday Schedule:Day Name
  03f89016-f015-4308-9cd2-91c3df1526ea, !- Tuesday Schedule:Day Name
  03f89016-f015-4308-9cd2-91c3df1526ea, !- Wednesday Schedule:Day Name
  03f89016-f015-4308-9cd2-91c3df1526ea, !- Thursday Schedule:Day Name
  03f89016-f015-4308-9cd2-91c3df1526ea, !- Friday Schedule:Day Name
  79f6dca9-5fe9-478a-bde9-12d42f6e605d, !- Saturday Schedule:Day Name
  79f6dca9-5fe9-478a-bde9-12d42f6e605d, !- Holiday Schedule:Day Name
  79f6dca9-5fe9-478a-bde9-12d42f6e605d, !- SummerDesignDay Schedule:Day Name
  79f6dca9-5fe9-478a-bde9-12d42f6e605d, !- WinterDesignDay Schedule:Day Name
  79f6dca9-5fe9-478a-bde9-12d42f6e605d, !- CustomDay1 Schedule:Day Name
  79f6dca9-5fe9-478a-bde9-12d42f6e605d; !- CustomDay2 Schedule:Day Name

Schedule:Week:Daily, NECB-D-Electric-Equipment_36,
  79f6dca9-5fe9-478a-bde9-12d42f6e605d, !- Sunday Schedule:Day Name
  03f89016-f015-4308-9cd2-91c3df1526ea, !- Monday Schedule:Day Name
  03f89016-f015-4308-9cd2-91c3df1526ea, !- Tuesday Schedule:Day Name
  03f89016-f015-4308-9cd2-91c3df1526ea, !- Wednesday Schedule:Day Name
  03f89016-f015-4308-9cd2-91c3df1526ea, !- Thursday Schedule:Day Name
  03f89016-f015-4308-9cd2-91c3df1526ea, !- Friday Schedule:Day Name
  79f6dca9-5fe9-478a-bde9-12d42f6e605d, !- Saturday Schedule:Day Name
  79f6dca9-5fe9-478a-bde9-12d42f6e605d, !- Holiday Schedule:Day Name
  79f6dca9-5fe9-478a-bde9-12d42f6e605d, !- SummerDesignDay Schedule:Day Name
  79f6dca9-5fe9-478a-bde9-12d42f6e605d, !- WinterDesignDay Schedule:Day Name
  79f6dca9-5fe9-478a-bde9-12d42f6e605d, !- CustomDay1 Schedule:Day Name
  79f6dca9-5fe9-478a-bde9-12d42f6e605d; !- CustomDay2 Schedule:Day Name

Schedule:Week:Daily, NECB-D-Electric-Equipment_37,
  79f6dca9-5fe9-478a-bde9-12d42f6e605d, !- Sunday Schedule:Day Name
  03f89016-f015-4308-9cd2-91c3df1526ea, !- Monday Schedule:Day Name
  03f89016-f015-4308-9cd2-91c3df1526ea, !- Tuesday Schedule:Day Name
  03f89016-f015-4308-9cd2-91c3df1526ea, !- Wednesday Schedule:Day Name
  03f89016-f015-4308-9cd2-91c3df1526ea, !- Thursday Schedule:Day Name
  03f89016-f015-4308-9cd2-91c3df1526ea, !- Friday Schedule:Day Name
  79f6dca9-5fe9-478a-bde9-12d42f6e605d, !- Saturday Schedule:Day Name
  79f6dca9-5fe9-478a-bde9-12d42f6e605d, !- Holiday Schedule:Day Name
  79f6dca9-5fe9-478a-bde9-12d42f6e605d, !- SummerDesignDay Schedule:Day Name
  79f6dca9-5fe9-478a-bde9-12d42f6e605d, !- WinterDesignDay Schedule:Day Name
  79f6dca9-5fe9-478a-bde9-12d42f6e605d, !- CustomDay1 Schedule:Day Name
  79f6dca9-5fe9-478a-bde9-12d42f6e605d; !- CustomDay2 Schedule:Day Name

Schedule:Week:Daily, NECB-D-Electric-Equipment_38,
  79f6dca9-5fe9-478a-bde9-12d42f6e605d, !- Sunday Schedule:Day Name
  03f89016-f015-4308-9cd2-91c3df1526ea, !- Monday Schedule:Day Name
  03f89016-f015-4308-9cd2-91c3df1526ea, !- Tuesday Schedule:Day Name
  03f89016-f015-4308-9cd2-91c3df1526ea, !- Wednesday Schedule:Day Name
  03f89016-f015-4308-9cd2-91c3df1526ea, !- Thursday Schedule:Day Name
  03f89016-f015-4308-9cd2-91c3df1526ea, !- Friday Schedule:Day Name
  79f6dca9-5fe9-478a-bde9-12d42f6e605d, !- Saturday Schedule:Day Name
  79f6dca9-5fe9-478a-bde9-12d42f6e605d, !- Holiday Schedule:Day Name
  79f6dca9-5fe9-478a-bde9-12d42f6e605d, !- SummerDesignDay Schedule:Day Name
  79f6dca9-5fe9-478a-bde9-12d42f6e605d, !- WinterDesignDay Schedule:Day Name
  79f6dca9-5fe9-478a-bde9-12d42f6e605d, !- CustomDay1 Schedule:Day Name
  79f6dca9-5fe9-478a-bde9-12d42f6e605d; !- CustomDay2 Schedule:Day Name

Schedule:Week:Daily, NECB-D-Electric-Equipment_39,
  79f6dca9-5fe9-478a-bde9-12d42f6e605d, !- Sunday Schedule:Day Name
  03f89016-f015-4308-9cd2-91c3df1526ea, !- Monday Schedule:Day Name
  03f89016-f015-4308-9cd2-91c3df1526ea, !- Tuesday Schedule:Day Name
  03f89016-f015-4308-9cd2-91c3df1526ea, !- Wednesday Schedule:Day Name
  03f89016-f015-4308-9cd2-91c3df1526ea, !- Thursday Schedule:Day Name
  03f89016-f015-4308-9cd2-91c3df1526ea, !- Friday Schedule:Day Name
  79f6dca9-5fe9-478a-bde9-12d42f6e605d, !- Saturday Schedule:Day Name
  79f6dca9-5fe9-478a-bde9-12d42f6e605d, !- Holiday Schedule:Day Name
  79f6dca9-5fe9-478a-bde9-12d42f6e605d, !- SummerDesignDay Schedule:Day Name
  79f6dca9-5fe9-478a-bde9-12d42f6e605d, !- WinterDesignDay Schedule:Day Name
  79f6dca9-5fe9-478a-bde9-12d42f6e605d, !- CustomDay1 Schedule:Day Name
  79f6dca9-5fe9-478a-bde9-12d42f6e605d; !- CustomDay2 Schedule:Day Name

Schedule:Week:Daily, NECB-D-Electric-Equipment_40,
  79f6dca9-5fe9-478a-bde9-12d42f6e605d, !- Sunday Schedule:Day Name
  03f89016-f015-4308-9cd2-91c3df1526ea, !- Monday Schedule:Day Name
  03f89016-f015-4308-9cd2-91c3df1526ea, !- Tuesday Schedule:Day Name
  03f89016-f015-4308-9cd2-91c3df1526ea, !- Wednesday Schedule:Day Name
  03f89016-f015-4308-9cd2-91c3df1526ea, !- Thursday Schedule:Day Name
  03f89016-f015-4308-9cd2-91c3df1526ea, !- Friday Schedule:Day Name
  79f6dca9-5fe9-478a-bde9-12d42f6e605d, !- Saturday Schedule:Day Name
  79f6dca9-5fe9-478a-bde9-12d42f6e605d, !- Holiday Schedule:Day Name
  79f6dca9-5fe9-478a-bde9-12d42f6e605d, !- SummerDesignDay Schedule:Day Name
  79f6dca9-5fe9-478a-bde9-12d42f6e605d, !- WinterDesignDay Schedule:Day Name
  79f6dca9-5fe9-478a-bde9-12d42f6e605d, !- CustomDay1 Schedule:Day Name
  79f6dca9-5fe9-478a-bde9-12d42f6e605d; !- CustomDay2 Schedule:Day Name

Schedule:Week:Daily, NECB-D-Electric-Equipment_41,
  79f6dca9-5fe9-478a-bde9-12d42f6e605d, !- Sunday Schedule:Day Name
  03f89016-f015-4308-9cd2-91c3df1526ea, !- Monday Schedule:Day Name
  03f89016-f015-4308-9cd2-91c3df1526ea, !- Tuesday Schedule:Day Name
  03f89016-f015-4308-9cd2-91c3df1526ea, !- Wednesday Schedule:Day Name
  03f89016-f015-4308-9cd2-91c3df1526ea, !- Thursday Schedule:Day Name
  03f89016-f015-4308-9cd2-91c3df1526ea, !- Friday Schedule:Day Name
  79f6dca9-5fe9-478a-bde9-12d42f6e605d, !- Saturday Schedule:Day Name
  79f6dca9-5fe9-478a-bde9-12d42f6e605d, !- Holiday Schedule:Day Name
  79f6dca9-5fe9-478a-bde9-12d42f6e605d, !- SummerDesignDay Schedule:Day Name
  79f6dca9-5fe9-478a-bde9-12d42f6e605d, !- WinterDesignDay Schedule:Day Name
  79f6dca9-5fe9-478a-bde9-12d42f6e605d, !- CustomDay1 Schedule:Day Name
  79f6dca9-5fe9-478a-bde9-12d42f6e605d; !- CustomDay2 Schedule:Day Name

Schedule:Week:Daily, NECB-D-Electric-Equipment_42,
  79f6dca9-5fe9-478a-bde9-12d42f6e605d, !- Sunday Schedule:Day Name
  03f89016-f015-4308-9cd2-91c3df1526ea, !- Monday Schedule:Day Name
  03f89016-f015-4308-9cd2-91c3df1526ea, !- Tuesday Schedule:Day Name
  03f89016-f015-4308-9cd2-91c3df1526ea, !- Wednesday Schedule:Day Name
  03f89016-f015-4308-9cd2-91c3df1526ea, !- Thursday Schedule:Day Name
  03f89016-f015-4308-9cd2-91c3df1526ea, !- Friday Schedule:Day Name
  79f6dca9-5fe9-478a-bde9-12d42f6e605d, !- Saturday Schedule:Day Name
  79f6dca9-5fe9-478a-bde9-12d42f6e605d, !- Holiday Schedule:Day Name
  79f6dca9-5fe9-478a-bde9-12d42f6e605d, !- SummerDesignDay Schedule:Day Name
  79f6dca9-5fe9-478a-bde9-12d42f6e605d, !- WinterDesignDay Schedule:Day Name
  79f6dca9-5fe9-478a-bde9-12d42f6e605d, !- CustomDay1 Schedule:Day Name
  79f6dca9-5fe9-478a-bde9-12d42f6e605d; !- CustomDay2 Schedule:Day Name

Schedule:Week:Daily, NECB-D-Electric-Equipment_43,
  79f6dca9-5fe9-478a-bde9-12d42f6e605d, !- Sunday Schedule:Day Name
  03f89016-f015-4308-9cd2-91c3df1526ea, !- Monday Schedule:Day Name
  03f89016-f015-4308-9cd2-91c3df1526ea, !- Tuesday Schedule:Day Name
  03f89016-f015-4308-9cd2-91c3df1526ea, !- Wednesday Schedule:Day Name
  03f89016-f015-4308-9cd2-91c3df1526ea, !- Thursday Schedule:Day Name
  03f89016-f015-4308-9cd2-91c3df1526ea, !- Friday Schedule:Day Name
  79f6dca9-5fe9-478a-bde9-12d42f6e605d, !- Saturday Schedule:Day Name
  79f6dca9-5fe9-478a-bde9-12d42f6e605d, !- Holiday Schedule:Day Name
  79f6dca9-5fe9-478a-bde9-12d42f6e605d, !- SummerDesignDay Schedule:Day Name
  79f6dca9-5fe9-478a-bde9-12d42f6e605d, !- WinterDesignDay Schedule:Day Name
  79f6dca9-5fe9-478a-bde9-12d42f6e605d, !- CustomDay1 Schedule:Day Name
  79f6dca9-5fe9-478a-bde9-12d42f6e605d; !- CustomDay2 Schedule:Day Name

Schedule:Week:Daily, NECB-D-Electric-Equipment_44,
  79f6dca9-5fe9-478a-bde9-12d42f6e605d, !- Sunday Schedule:Day Name
  03f89016-f015-4308-9cd2-91c3df1526ea, !- Monday Schedule:Day Name
  03f89016-f015-4308-9cd2-91c3df1526ea, !- Tuesday Schedule:Day Name
  03f89016-f015-4308-9cd2-91c3df1526ea, !- Wednesday Schedule:Day Name
  03f89016-f015-4308-9cd2-91c3df1526ea, !- Thursday Schedule:Day Name
  03f89016-f015-4308-9cd2-91c3df1526ea, !- Friday Schedule:Day Name
  79f6dca9-5fe9-478a-bde9-12d42f6e605d, !- Saturday Schedule:Day Name
  79f6dca9-5fe9-478a-bde9-12d42f6e605d, !- Holiday Schedule:Day Name
  79f6dca9-5fe9-478a-bde9-12d42f6e605d, !- SummerDesignDay Schedule:Day Name
  79f6dca9-5fe9-478a-bde9-12d42f6e605d, !- WinterDesignDay Schedule:Day Name
  79f6dca9-5fe9-478a-bde9-12d42f6e605d, !- CustomDay1 Schedule:Day Name
  79f6dca9-5fe9-478a-bde9-12d42f6e605d; !- CustomDay2 Schedule:Day Name

Schedule:Week:Daily, NECB-D-Electric-Equipment_45,
  79f6dca9-5fe9-478a-bde9-12d42f6e605d, !- Sunday Schedule:Day Name
  03f89016-f015-4308-9cd2-91c3df1526ea, !- Monday Schedule:Day Name
  03f89016-f015-4308-9cd2-91c3df1526ea, !- Tuesday Schedule:Day Name
  03f89016-f015-4308-9cd2-91c3df1526ea, !- Wednesday Schedule:Day Name
  03f89016-f015-4308-9cd2-91c3df1526ea, !- Thursday Schedule:Day Name
  03f89016-f015-4308-9cd2-91c3df1526ea, !- Friday Schedule:Day Name
  79f6dca9-5fe9-478a-bde9-12d42f6e605d, !- Saturday Schedule:Day Name
  79f6dca9-5fe9-478a-bde9-12d42f6e605d, !- Holiday Schedule:Day Name
  79f6dca9-5fe9-478a-bde9-12d42f6e605d, !- SummerDesignDay Schedule:Day Name
  79f6dca9-5fe9-478a-bde9-12d42f6e605d, !- WinterDesignDay Schedule:Day Name
  79f6dca9-5fe9-478a-bde9-12d42f6e605d, !- CustomDay1 Schedule:Day Name
  79f6dca9-5fe9-478a-bde9-12d42f6e605d; !- CustomDay2 Schedule:Day Name

Schedule:Week:Daily, NECB-D-Electric-Equipment_46,
  79f6dca9-5fe9-478a-bde9-12d42f6e605d, !- Sunday Schedule:Day Name
  03f89016-f015-4308-9cd2-91c3df1526ea, !- Monday Schedule:Day Name
  03f89016-f015-4308-9cd2-91c3df1526ea, !- Tuesday Schedule:Day Name
  03f89016-f015-4308-9cd2-91c3df1526ea, !- Wednesday Schedule:Day Name
  03f89016-f015-4308-9cd2-91c3df1526ea, !- Thursday Schedule:Day Name
  03f89016-f015-4308-9cd2-91c3df1526ea, !- Friday Schedule:Day Name
  79f6dca9-5fe9-478a-bde9-12d42f6e605d, !- Saturday Schedule:Day Name
  79f6dca9-5fe9-478a-bde9-12d42f6e605d, !- Holiday Schedule:Day Name
  79f6dca9-5fe9-478a-bde9-12d42f6e605d, !- SummerDesignDay Schedule:Day Name
  79f6dca9-5fe9-478a-bde9-12d42f6e605d, !- WinterDesignDay Schedule:Day Name
  79f6dca9-5fe9-478a-bde9-12d42f6e605d, !- CustomDay1 Schedule:Day Name
  79f6dca9-5fe9-478a-bde9-12d42f6e605d; !- CustomDay2 Schedule:Day Name

Schedule:Week:Daily, NECB-D-Electric-Equipment_47,
  79f6dca9-5fe9-478a-bde9-12d42f6e605d, !- Sunday Schedule:Day Name
  03f89016-f015-4308-9cd2-91c3df1526ea, !- Monday Schedule:Day Name
  03f89016-f015-4308-9cd2-91c3df1526ea, !- Tuesday Schedule:Day Name
  03f89016-f015-4308-9cd2-91c3df1526ea, !- Wednesday Schedule:Day Name
  03f89016-f015-4308-9cd2-91c3df1526ea, !- Thursday Schedule:Day Name
  03f89016-f015-4308-9cd2-91c3df1526ea, !- Friday Schedule:Day Name
  79f6dca9-5fe9-478a-bde9-12d42f6e605d, !- Saturday Schedule:Day Name
  79f6dca9-5fe9-478a-bde9-12d42f6e605d, !- Holiday Schedule:Day Name
  79f6dca9-5fe9-478a-bde9-12d42f6e605d, !- SummerDesignDay Schedule:Day Name
  79f6dca9-5fe9-478a-bde9-12d42f6e605d, !- WinterDesignDay Schedule:Day Name
  79f6dca9-5fe9-478a-bde9-12d42f6e605d, !- CustomDay1 Schedule:Day Name
  79f6dca9-5fe9-478a-bde9-12d42f6e605d; !- CustomDay2 Schedule:Day Name

Schedule:Week:Daily, NECB-D-Electric-Equipment_48,
  79f6dca9-5fe9-478a-bde9-12d42f6e605d, !- Sunday Schedule:Day Name
  03f89016-f015-4308-9cd2-91c3df1526ea, !- Monday Schedule:Day Name
  03f89016-f015-4308-9cd2-91c3df1526ea, !- Tuesday Schedule:Day Name
  03f89016-f015-4308-9cd2-91c3df1526ea, !- Wednesday Schedule:Day Name
  03f89016-f015-4308-9cd2-91c3df1526ea, !- Thursday Schedule:Day Name
  03f89016-f015-4308-9cd2-91c3df1526ea, !- Friday Schedule:Day Name
  79f6dca9-5fe9-478a-bde9-12d42f6e605d, !- Saturday Schedule:Day Name
  79f6dca9-5fe9-478a-bde9-12d42f6e605d, !- Holiday Schedule:Day Name
  79f6dca9-5fe9-478a-bde9-12d42f6e605d, !- SummerDesignDay Schedule:Day Name
  79f6dca9-5fe9-478a-bde9-12d42f6e605d, !- WinterDesignDay Schedule:Day Name
  79f6dca9-5fe9-478a-bde9-12d42f6e605d, !- CustomDay1 Schedule:Day Name
  79f6dca9-5fe9-478a-bde9-12d42f6e605d; !- CustomDay2 Schedule:Day Name

Schedule:Week:Daily, NECB-D-Electric-Equipment_49,
  79f6dca9-5fe9-478a-bde9-12d42f6e605d, !- Sunday Schedule:Day Name
  03f89016-f015-4308-9cd2-91c3df1526ea, !- Monday Schedule:Day Name
  03f89016-f015-4308-9cd2-91c3df1526ea, !- Tuesday Schedule:Day Name
  03f89016-f015-4308-9cd2-91c3df1526ea, !- Wednesday Schedule:Day Name
  03f89016-f015-4308-9cd2-91c3df1526ea, !- Thursday Schedule:Day Name
  03f89016-f015-4308-9cd2-91c3df1526ea, !- Friday Schedule:Day Name
  79f6dca9-5fe9-478a-bde9-12d42f6e605d, !- Saturday Schedule:Day Name
  79f6dca9-5fe9-478a-bde9-12d42f6e605d, !- Holiday Schedule:Day Name
  79f6dca9-5fe9-478a-bde9-12d42f6e605d, !- SummerDesignDay Schedule:Day Name
  79f6dca9-5fe9-478a-bde9-12d42f6e605d, !- WinterDesignDay Schedule:Day Name
  79f6dca9-5fe9-478a-bde9-12d42f6e605d, !- CustomDay1 Schedule:Day Name
  79f6dca9-5fe9-478a-bde9-12d42f6e605d; !- CustomDay2 Schedule:Day Name

Schedule:Week:Daily, NECB-D-Electric-Equipment_50,
  79f6dca9-5fe9-478a-bde9-12d42f6e605d, !- Sunday Schedule:Day Name
  03f89016-f015-4308-9cd2-91c3df1526ea, !- Monday Schedule:Day Name
  03f89016-f015-4308-9cd2-91c3df1526ea, !- Tuesday Schedule:Day Name
  03f89016-f015-4308-9cd2-91c3df1526ea, !- Wednesday Schedule:Day Name
  03f89016-f015-4308-9cd2-91c3df1526ea, !- Thursday Schedule:Day Name
  03f89016-f015-4308-9cd2-91c3df1526ea, !- Friday Schedule:Day Name
  79f6dca9-5fe9-478a-bde9-12d42f6e605d, !- Saturday Schedule:Day Name
  79f6dca9-5fe9-478a-bde9-12d42f6e605d, !- Holiday Schedule:Day Name
  79f6dca9-5fe9-478a-bde9-12d42f6e605d, !- SummerDesignDay Schedule:Day Name
  79f6dca9-5fe9-478a-bde9-12d42f6e605d, !- WinterDesignDay Schedule:Day Name
  79f6dca9-5fe9-478a-bde9-12d42f6e605d, !- CustomDay1 Schedule:Day Name
  79f6dca9-5fe9-478a-bde9-12d42f6e605d; !- CustomDay2 Schedule:Day Name

Schedule:Week:Daily, NECB-D-Electric-Equipment_51,
  79f6dca9-5fe9-478a-bde9-12d42f6e605d, !- Sunday Schedule:Day Name
  03f89016-f015-4308-9cd2-91c3df1526ea, !- Monday Schedule:Day Name
  03f89016-f015-4308-9cd2-91c3df1526ea, !- Tuesday Schedule:Day Name
  03f89016-f015-4308-9cd2-91c3df1526ea, !- Wednesday Schedule:Day Name
  03f89016-f015-4308-9cd2-91c3df1526ea, !- Thursday Schedule:Day Name
  03f89016-f015-4308-9cd2-91c3df1526ea, !- Friday Schedule:Day Name
  79f6dca9-5fe9-478a-bde9-12d42f6e605d, !- Saturday Schedule:Day Name
  79f6dca9-5fe9-478a-bde9-12d42f6e605d, !- Holiday Schedule:Day Name
  79f6dca9-5fe9-478a-bde9-12d42f6e605d, !- SummerDesignDay Schedule:Day Name
  79f6dca9-5fe9-478a-bde9-12d42f6e605d, !- WinterDesignDay Schedule:Day Name
  79f6dca9-5fe9-478a-bde9-12d42f6e605d, !- CustomDay1 Schedule:Day Name
  79f6dca9-5fe9-478a-bde9-12d42f6e605d; !- CustomDay2 Schedule:Day Name

Schedule:Week:Daily, NECB-D-Electric-Equipment_52,
  79f6dca9-5fe9-478a-bde9-12d42f6e605d, !- Sunday Schedule:Day Name
  79f6dca9-5fe9-478a-bde9-12d42f6e605d, !- Monday Schedule:Day Name
  79f6dca9-5fe9-478a-bde9-12d42f6e605d, !- Tuesday Schedule:Day Name
  79f6dca9-5fe9-478a-bde9-12d42f6e605d, !- Wednesday Schedule:Day Name
  79f6dca9-5fe9-478a-bde9-12d42f6e605d, !- Thursday Schedule:Day Name
  79f6dca9-5fe9-478a-bde9-12d42f6e605d, !- Friday Schedule:Day Name
  79f6dca9-5fe9-478a-bde9-12d42f6e605d, !- Saturday Schedule:Day Name
  79f6dca9-5fe9-478a-bde9-12d42f6e605d, !- Holiday Schedule:Day Name
  79f6dca9-5fe9-478a-bde9-12d42f6e605d, !- SummerDesignDay Schedule:Day Name
  79f6dca9-5fe9-478a-bde9-12d42f6e605d, !- WinterDesignDay Schedule:Day Name
  79f6dca9-5fe9-478a-bde9-12d42f6e605d, !- CustomDay1 Schedule:Day Name
  79f6dca9-5fe9-478a-bde9-12d42f6e605d; !- CustomDay2 Schedule:Day Name


Schedule:Year,NECB-D-Thermostat Setpoint-Heating,
Temperature,
NECB-D-Thermostat Setpoint-Heating_0,1,1,1,7, 
NECB-D-Thermostat Setpoint-Heating_1,1,8,1,14, 
NECB-D-Thermostat Setpoint-Heating_2,1,15,1,21, 
NECB-D-Thermostat Setpoint-Heating_3,1,22,1,28, 
NECB-D-Thermostat Setpoint-Heating_4,1,29,2,4, 
NECB-D-Thermostat Setpoint-Heating_5,2,5,2,11, 
NECB-D-Thermostat Setpoint-Heating_6,2,12,2,18, 
NECB-D-Thermostat Setpoint-Heating_7,2,19,2,25, 
NECB-D-Thermostat Setpoint-Heating_8,2,26,3,4, 
NECB-D-Thermostat Setpoint-Heating_9,3,5,3,11, 
NECB-D-Thermostat Setpoint-Heating_10,3,12,3,18, 
NECB-D-Thermostat Setpoint-Heating_11,3,19,3,25, 
NECB-D-Thermostat Setpoint-Heating_12,3,26,4,1, 
NECB-D-Thermostat Setpoint-Heating_13,4,2,4,8, 
NECB-D-Thermostat Setpoint-Heating_14,4,9,4,15, 
NECB-D-Thermostat Setpoint-Heating_15,4,16,4,22, 
NECB-D-Thermostat Setpoint-Heating_16,4,23,4,29, 
NECB-D-Thermostat Setpoint-Heating_17,4,30,5,6, 
NECB-D-Thermostat Setpoint-Heating_18,5,7,5,13, 
NECB-D-Thermostat Setpoint-Heating_19,5,14,5,20, 
NECB-D-Thermostat Setpoint-Heating_20,5,21,5,27, 
NECB-D-Thermostat Setpoint-Heating_21,5,28,6,3, 
NECB-D-Thermostat Setpoint-Heating_22,6,4,6,10, 
NECB-D-Thermostat Setpoint-Heating_23,6,11,6,17, 
NECB-D-Thermostat Setpoint-Heating_24,6,18,6,24, 
NECB-D-Thermostat Setpoint-Heating_25,6,25,7,1, 
NECB-D-Thermostat Setpoint-Heating_26,7,2,7,8, 
NECB-D-Thermostat Setpoint-Heating_27,7,9,7,15, 
NECB-D-Thermostat Setpoint-Heating_28,7,16,7,22, 
NECB-D-Thermostat Setpoint-Heating_29,7,23,7,29, 
NECB-D-Thermostat Setpoint-Heating_30,7,30,8,5, 
NECB-D-Thermostat Setpoint-Heating_31,8,6,8,12, 
NECB-D-Thermostat Setpoint-Heating_32,8,13,8,19, 
NECB-D-Thermostat Setpoint-Heating_33,8,20,8,26, 
NECB-D-Thermostat Setpoint-Heating_34,8,27,9,2, 
NECB-D-Thermostat Setpoint-Heating_35,9,3,9,9, 
NECB-D-Thermostat Setpoint-Heating_36,9,10,9,16, 
NECB-D-Thermostat Setpoint-Heating_37,9,17,9,23, 
NECB-D-Thermostat Setpoint-Heating_38,9,24,9,30, 
NECB-D-Thermostat Setpoint-Heating_39,10,1,10,7, 
NECB-D-Thermostat Setpoint-Heating_40,10,8,10,14, 
NECB-D-Thermostat Setpoint-Heating_41,10,15,10,21, 
NECB-D-Thermostat Setpoint-Heating_42,10,22,10,28, 
NECB-D-Thermostat Setpoint-Heating_43,10,29,11,4, 
NECB-D-Thermostat Setpoint-Heating_44,11,5,11,11, 
NECB-D-Thermostat Setpoint-Heating_45,11,12,11,18, 
NECB-D-Thermostat Setpoint-Heating_46,11,19,11,25, 
NECB-D-Thermostat Setpoint-Heating_47,11,26,12,2, 
NECB-D-Thermostat Setpoint-Heating_48,12,3,12,9, 
NECB-D-Thermostat Setpoint-Heating_49,12,10,12,16, 
NECB-D-Thermostat Setpoint-Heating_50,12,17,12,23, 
NECB-D-Thermostat Setpoint-Heating_51,12,24,12,30, 
NECB-D-Thermostat Setpoint-Heating_52,12,31,12,31;

Schedule:Week:Daily, NECB-D-Thermostat Setpoint-Heating_0,
  1f46022c-dc35-4b1c-a5f3-48aafba85baa, !- Sunday Schedule:Day Name
  4879fb07-a0f9-4e92-8872-17b1081e4b79, !- Monday Schedule:Day Name
  4879fb07-a0f9-4e92-8872-17b1081e4b79, !- Tuesday Schedule:Day Name
  4879fb07-a0f9-4e92-8872-17b1081e4b79, !- Wednesday Schedule:Day Name
  4879fb07-a0f9-4e92-8872-17b1081e4b79, !- Thursday Schedule:Day Name
  4879fb07-a0f9-4e92-8872-17b1081e4b79, !- Friday Schedule:Day Name
  1f46022c-dc35-4b1c-a5f3-48aafba85baa, !- Saturday Schedule:Day Name
  1f46022c-dc35-4b1c-a5f3-48aafba85baa, !- Holiday Schedule:Day Name
  1f46022c-dc35-4b1c-a5f3-48aafba85baa, !- SummerDesignDay Schedule:Day Name
  1f46022c-dc35-4b1c-a5f3-48aafba85baa, !- WinterDesignDay Schedule:Day Name
  1f46022c-dc35-4b1c-a5f3-48aafba85baa, !- CustomDay1 Schedule:Day Name
  1f46022c-dc35-4b1c-a5f3-48aafba85baa; !- CustomDay2 Schedule:Day Name

Schedule:Week:Daily, NECB-D-Thermostat Setpoint-Heating_1,
  1f46022c-dc35-4b1c-a5f3-48aafba85baa, !- Sunday Schedule:Day Name
  4879fb07-a0f9-4e92-8872-17b1081e4b79, !- Monday Schedule:Day Name
  4879fb07-a0f9-4e92-8872-17b1081e4b79, !- Tuesday Schedule:Day Name
  4879fb07-a0f9-4e92-8872-17b1081e4b79, !- Wednesday Schedule:Day Name
  4879fb07-a0f9-4e92-8872-17b1081e4b79, !- Thursday Schedule:Day Name
  4879fb07-a0f9-4e92-8872-17b1081e4b79, !- Friday Schedule:Day Name
  1f46022c-dc35-4b1c-a5f3-48aafba85baa, !- Saturday Schedule:Day Name
  1f46022c-dc35-4b1c-a5f3-48aafba85baa, !- Holiday Schedule:Day Name
  1f46022c-dc35-4b1c-a5f3-48aafba85baa, !- SummerDesignDay Schedule:Day Name
  1f46022c-dc35-4b1c-a5f3-48aafba85baa, !- WinterDesignDay Schedule:Day Name
  1f46022c-dc35-4b1c-a5f3-48aafba85baa, !- CustomDay1 Schedule:Day Name
  1f46022c-dc35-4b1c-a5f3-48aafba85baa; !- CustomDay2 Schedule:Day Name

Schedule:Week:Daily, NECB-D-Thermostat Setpoint-Heating_2,
  1f46022c-dc35-4b1c-a5f3-48aafba85baa, !- Sunday Schedule:Day Name
  4879fb07-a0f9-4e92-8872-17b1081e4b79, !- Monday Schedule:Day Name
  4879fb07-a0f9-4e92-8872-17b1081e4b79, !- Tuesday Schedule:Day Name
  4879fb07-a0f9-4e92-8872-17b1081e4b79, !- Wednesday Schedule:Day Name
  4879fb07-a0f9-4e92-8872-17b1081e4b79, !- Thursday Schedule:Day Name
  4879fb07-a0f9-4e92-8872-17b1081e4b79, !- Friday Schedule:Day Name
  1f46022c-dc35-4b1c-a5f3-48aafba85baa, !- Saturday Schedule:Day Name
  1f46022c-dc35-4b1c-a5f3-48aafba85baa, !- Holiday Schedule:Day Name
  1f46022c-dc35-4b1c-a5f3-48aafba85baa, !- SummerDesignDay Schedule:Day Name
  1f46022c-dc35-4b1c-a5f3-48aafba85baa, !- WinterDesignDay Schedule:Day Name
  1f46022c-dc35-4b1c-a5f3-48aafba85baa, !- CustomDay1 Schedule:Day Name
  1f46022c-dc35-4b1c-a5f3-48aafba85baa; !- CustomDay2 Schedule:Day Name

Schedule:Week:Daily, NECB-D-Thermostat Setpoint-Heating_3,
  1f46022c-dc35-4b1c-a5f3-48aafba85baa, !- Sunday Schedule:Day Name
  4879fb07-a0f9-4e92-8872-17b1081e4b79, !- Monday Schedule:Day Name
  4879fb07-a0f9-4e92-8872-17b1081e4b79, !- Tuesday Schedule:Day Name
  4879fb07-a0f9-4e92-8872-17b1081e4b79, !- Wednesday Schedule:Day Name
  4879fb07-a0f9-4e92-8872-17b1081e4b79, !- Thursday Schedule:Day Name
  4879fb07-a0f9-4e92-8872-17b1081e4b79, !- Friday Schedule:Day Name
  1f46022c-dc35-4b1c-a5f3-48aafba85baa, !- Saturday Schedule:Day Name
  1f46022c-dc35-4b1c-a5f3-48aafba85baa, !- Holiday Schedule:Day Name
  1f46022c-dc35-4b1c-a5f3-48aafba85baa, !- SummerDesignDay Schedule:Day Name
  1f46022c-dc35-4b1c-a5f3-48aafba85baa, !- WinterDesignDay Schedule:Day Name
  1f46022c-dc35-4b1c-a5f3-48aafba85baa, !- CustomDay1 Schedule:Day Name
  1f46022c-dc35-4b1c-a5f3-48aafba85baa; !- CustomDay2 Schedule:Day Name

Schedule:Week:Daily, NECB-D-Thermostat Setpoint-Heating_4,
  1f46022c-dc35-4b1c-a5f3-48aafba85baa, !- Sunday Schedule:Day Name
  4879fb07-a0f9-4e92-8872-17b1081e4b79, !- Monday Schedule:Day Name
  4879fb07-a0f9-4e92-8872-17b1081e4b79, !- Tuesday Schedule:Day Name
  4879fb07-a0f9-4e92-8872-17b1081e4b79, !- Wednesday Schedule:Day Name
  4879fb07-a0f9-4e92-8872-17b1081e4b79, !- Thursday Schedule:Day Name
  4879fb07-a0f9-4e92-8872-17b1081e4b79, !- Friday Schedule:Day Name
  1f46022c-dc35-4b1c-a5f3-48aafba85baa, !- Saturday Schedule:Day Name
  1f46022c-dc35-4b1c-a5f3-48aafba85baa, !- Holiday Schedule:Day Name
  1f46022c-dc35-4b1c-a5f3-48aafba85baa, !- SummerDesignDay Schedule:Day Name
  1f46022c-dc35-4b1c-a5f3-48aafba85baa, !- WinterDesignDay Schedule:Day Name
  1f46022c-dc35-4b1c-a5f3-48aafba85baa, !- CustomDay1 Schedule:Day Name
  1f46022c-dc35-4b1c-a5f3-48aafba85baa; !- CustomDay2 Schedule:Day Name

Schedule:Week:Daily, NECB-D-Thermostat Setpoint-Heating_5,
  1f46022c-dc35-4b1c-a5f3-48aafba85baa, !- Sunday Schedule:Day Name
  4879fb07-a0f9-4e92-8872-17b1081e4b79, !- Monday Schedule:Day Name
  4879fb07-a0f9-4e92-8872-17b1081e4b79, !- Tuesday Schedule:Day Name
  4879fb07-a0f9-4e92-8872-17b1081e4b79, !- Wednesday Schedule:Day Name
  4879fb07-a0f9-4e92-8872-17b1081e4b79, !- Thursday Schedule:Day Name
  4879fb07-a0f9-4e92-8872-17b1081e4b79, !- Friday Schedule:Day Name
  1f46022c-dc35-4b1c-a5f3-48aafba85baa, !- Saturday Schedule:Day Name
  1f46022c-dc35-4b1c-a5f3-48aafba85baa, !- Holiday Schedule:Day Name
  1f46022c-dc35-4b1c-a5f3-48aafba85baa, !- SummerDesignDay Schedule:Day Name
  1f46022c-dc35-4b1c-a5f3-48aafba85baa, !- WinterDesignDay Schedule:Day Name
  1f46022c-dc35-4b1c-a5f3-48aafba85baa, !- CustomDay1 Schedule:Day Name
  1f46022c-dc35-4b1c-a5f3-48aafba85baa; !- CustomDay2 Schedule:Day Name

Schedule:Week:Daily, NECB-D-Thermostat Setpoint-Heating_6,
  1f46022c-dc35-4b1c-a5f3-48aafba85baa, !- Sunday Schedule:Day Name
  4879fb07-a0f9-4e92-8872-17b1081e4b79, !- Monday Schedule:Day Name
  4879fb07-a0f9-4e92-8872-17b1081e4b79, !- Tuesday Schedule:Day Name
  4879fb07-a0f9-4e92-8872-17b1081e4b79, !- Wednesday Schedule:Day Name
  4879fb07-a0f9-4e92-8872-17b1081e4b79, !- Thursday Schedule:Day Name
  4879fb07-a0f9-4e92-8872-17b1081e4b79, !- Friday Schedule:Day Name
  1f46022c-dc35-4b1c-a5f3-48aafba85baa, !- Saturday Schedule:Day Name
  1f46022c-dc35-4b1c-a5f3-48aafba85baa, !- Holiday Schedule:Day Name
  1f46022c-dc35-4b1c-a5f3-48aafba85baa, !- SummerDesignDay Schedule:Day Name
  1f46022c-dc35-4b1c-a5f3-48aafba85baa, !- WinterDesignDay Schedule:Day Name
  1f46022c-dc35-4b1c-a5f3-48aafba85baa, !- CustomDay1 Schedule:Day Name
  1f46022c-dc35-4b1c-a5f3-48aafba85baa; !- CustomDay2 Schedule:Day Name

Schedule:Week:Daily, NECB-D-Thermostat Setpoint-Heating_7,
  1f46022c-dc35-4b1c-a5f3-48aafba85baa, !- Sunday Schedule:Day Name
  4879fb07-a0f9-4e92-8872-17b1081e4b79, !- Monday Schedule:Day Name
  4879fb07-a0f9-4e92-8872-17b1081e4b79, !- Tuesday Schedule:Day Name
  4879fb07-a0f9-4e92-8872-17b1081e4b79, !- Wednesday Schedule:Day Name
  4879fb07-a0f9-4e92-8872-17b1081e4b79, !- Thursday Schedule:Day Name
  4879fb07-a0f9-4e92-8872-17b1081e4b79, !- Friday Schedule:Day Name
  1f46022c-dc35-4b1c-a5f3-48aafba85baa, !- Saturday Schedule:Day Name
  1f46022c-dc35-4b1c-a5f3-48aafba85baa, !- Holiday Schedule:Day Name
  1f46022c-dc35-4b1c-a5f3-48aafba85baa, !- SummerDesignDay Schedule:Day Name
  1f46022c-dc35-4b1c-a5f3-48aafba85baa, !- WinterDesignDay Schedule:Day Name
  1f46022c-dc35-4b1c-a5f3-48aafba85baa, !- CustomDay1 Schedule:Day Name
  1f46022c-dc35-4b1c-a5f3-48aafba85baa; !- CustomDay2 Schedule:Day Name

Schedule:Week:Daily, NECB-D-Thermostat Setpoint-Heating_8,
  1f46022c-dc35-4b1c-a5f3-48aafba85baa, !- Sunday Schedule:Day Name
  4879fb07-a0f9-4e92-8872-17b1081e4b79, !- Monday Schedule:Day Name
  4879fb07-a0f9-4e92-8872-17b1081e4b79, !- Tuesday Schedule:Day Name
  4879fb07-a0f9-4e92-8872-17b1081e4b79, !- Wednesday Schedule:Day Name
  4879fb07-a0f9-4e92-8872-17b1081e4b79, !- Thursday Schedule:Day Name
  4879fb07-a0f9-4e92-8872-17b1081e4b79, !- Friday Schedule:Day Name
  1f46022c-dc35-4b1c-a5f3-48aafba85baa, !- Saturday Schedule:Day Name
  1f46022c-dc35-4b1c-a5f3-48aafba85baa, !- Holiday Schedule:Day Name
  1f46022c-dc35-4b1c-a5f3-48aafba85baa, !- SummerDesignDay Schedule:Day Name
  1f46022c-dc35-4b1c-a5f3-48aafba85baa, !- WinterDesignDay Schedule:Day Name
  1f46022c-dc35-4b1c-a5f3-48aafba85baa, !- CustomDay1 Schedule:Day Name
  1f46022c-dc35-4b1c-a5f3-48aafba85baa; !- CustomDay2 Schedule:Day Name

Schedule:Week:Daily, NECB-D-Thermostat Setpoint-Heating_9,
  1f46022c-dc35-4b1c-a5f3-48aafba85baa, !- Sunday Schedule:Day Name
  4879fb07-a0f9-4e92-8872-17b1081e4b79, !- Monday Schedule:Day Name
  4879fb07-a0f9-4e92-8872-17b1081e4b79, !- Tuesday Schedule:Day Name
  4879fb07-a0f9-4e92-8872-17b1081e4b79, !- Wednesday Schedule:Day Name
  4879fb07-a0f9-4e92-8872-17b1081e4b79, !- Thursday Schedule:Day Name
  4879fb07-a0f9-4e92-8872-17b1081e4b79, !- Friday Schedule:Day Name
  1f46022c-dc35-4b1c-a5f3-48aafba85baa, !- Saturday Schedule:Day Name
  1f46022c-dc35-4b1c-a5f3-48aafba85baa, !- Holiday Schedule:Day Name
  1f46022c-dc35-4b1c-a5f3-48aafba85baa, !- SummerDesignDay Schedule:Day Name
  1f46022c-dc35-4b1c-a5f3-48aafba85baa, !- WinterDesignDay Schedule:Day Name
  1f46022c-dc35-4b1c-a5f3-48aafba85baa, !- CustomDay1 Schedule:Day Name
  1f46022c-dc35-4b1c-a5f3-48aafba85baa; !- CustomDay2 Schedule:Day Name

Schedule:Week:Daily, NECB-D-Thermostat Setpoint-Heating_10,
  1f46022c-dc35-4b1c-a5f3-48aafba85baa, !- Sunday Schedule:Day Name
  4879fb07-a0f9-4e92-8872-17b1081e4b79, !- Monday Schedule:Day Name
  4879fb07-a0f9-4e92-8872-17b1081e4b79, !- Tuesday Schedule:Day Name
  4879fb07-a0f9-4e92-8872-17b1081e4b79, !- Wednesday Schedule:Day Name
  4879fb07-a0f9-4e92-8872-17b1081e4b79, !- Thursday Schedule:Day Name
  4879fb07-a0f9-4e92-8872-17b1081e4b79, !- Friday Schedule:Day Name
  1f46022c-dc35-4b1c-a5f3-48aafba85baa, !- Saturday Schedule:Day Name
  1f46022c-dc35-4b1c-a5f3-48aafba85baa, !- Holiday Schedule:Day Name
  1f46022c-dc35-4b1c-a5f3-48aafba85baa, !- SummerDesignDay Schedule:Day Name
  1f46022c-dc35-4b1c-a5f3-48aafba85baa, !- WinterDesignDay Schedule:Day Name
  1f46022c-dc35-4b1c-a5f3-48aafba85baa, !- CustomDay1 Schedule:Day Name
  1f46022c-dc35-4b1c-a5f3-48aafba85baa; !- CustomDay2 Schedule:Day Name

Schedule:Week:Daily, NECB-D-Thermostat Setpoint-Heating_11,
  1f46022c-dc35-4b1c-a5f3-48aafba85baa, !- Sunday Schedule:Day Name
  4879fb07-a0f9-4e92-8872-17b1081e4b79, !- Monday Schedule:Day Name
  4879fb07-a0f9-4e92-8872-17b1081e4b79, !- Tuesday Schedule:Day Name
  4879fb07-a0f9-4e92-8872-17b1081e4b79, !- Wednesday Schedule:Day Name
  4879fb07-a0f9-4e92-8872-17b1081e4b79, !- Thursday Schedule:Day Name
  4879fb07-a0f9-4e92-8872-17b1081e4b79, !- Friday Schedule:Day Name
  1f46022c-dc35-4b1c-a5f3-48aafba85baa, !- Saturday Schedule:Day Name
  1f46022c-dc35-4b1c-a5f3-48aafba85baa, !- Holiday Schedule:Day Name
  1f46022c-dc35-4b1c-a5f3-48aafba85baa, !- SummerDesignDay Schedule:Day Name
  1f46022c-dc35-4b1c-a5f3-48aafba85baa, !- WinterDesignDay Schedule:Day Name
  1f46022c-dc35-4b1c-a5f3-48aafba85baa, !- CustomDay1 Schedule:Day Name
  1f46022c-dc35-4b1c-a5f3-48aafba85baa; !- CustomDay2 Schedule:Day Name

Schedule:Week:Daily, NECB-D-Thermostat Setpoint-Heating_12,
  1f46022c-dc35-4b1c-a5f3-48aafba85baa, !- Sunday Schedule:Day Name
  4879fb07-a0f9-4e92-8872-17b1081e4b79, !- Monday Schedule:Day Name
  4879fb07-a0f9-4e92-8872-17b1081e4b79, !- Tuesday Schedule:Day Name
  4879fb07-a0f9-4e92-8872-17b1081e4b79, !- Wednesday Schedule:Day Name
  4879fb07-a0f9-4e92-8872-17b1081e4b79, !- Thursday Schedule:Day Name
  4879fb07-a0f9-4e92-8872-17b1081e4b79, !- Friday Schedule:Day Name
  1f46022c-dc35-4b1c-a5f3-48aafba85baa, !- Saturday Schedule:Day Name
  1f46022c-dc35-4b1c-a5f3-48aafba85baa, !- Holiday Schedule:Day Name
  1f46022c-dc35-4b1c-a5f3-48aafba85baa, !- SummerDesignDay Schedule:Day Name
  1f46022c-dc35-4b1c-a5f3-48aafba85baa, !- WinterDesignDay Schedule:Day Name
  1f46022c-dc35-4b1c-a5f3-48aafba85baa, !- CustomDay1 Schedule:Day Name
  1f46022c-dc35-4b1c-a5f3-48aafba85baa; !- CustomDay2 Schedule:Day Name

Schedule:Week:Daily, NECB-D-Thermostat Setpoint-Heating_13,
  1f46022c-dc35-4b1c-a5f3-48aafba85baa, !- Sunday Schedule:Day Name
  4879fb07-a0f9-4e92-8872-17b1081e4b79, !- Monday Schedule:Day Name
  4879fb07-a0f9-4e92-8872-17b1081e4b79, !- Tuesday Schedule:Day Name
  4879fb07-a0f9-4e92-8872-17b1081e4b79, !- Wednesday Schedule:Day Name
  4879fb07-a0f9-4e92-8872-17b1081e4b79, !- Thursday Schedule:Day Name
  4879fb07-a0f9-4e92-8872-17b1081e4b79, !- Friday Schedule:Day Name
  1f46022c-dc35-4b1c-a5f3-48aafba85baa, !- Saturday Schedule:Day Name
  1f46022c-dc35-4b1c-a5f3-48aafba85baa, !- Holiday Schedule:Day Name
  1f46022c-dc35-4b1c-a5f3-48aafba85baa, !- SummerDesignDay Schedule:Day Name
  1f46022c-dc35-4b1c-a5f3-48aafba85baa, !- WinterDesignDay Schedule:Day Name
  1f46022c-dc35-4b1c-a5f3-48aafba85baa, !- CustomDay1 Schedule:Day Name
  1f46022c-dc35-4b1c-a5f3-48aafba85baa; !- CustomDay2 Schedule:Day Name

Schedule:Week:Daily, NECB-D-Thermostat Setpoint-Heating_14,
  1f46022c-dc35-4b1c-a5f3-48aafba85baa, !- Sunday Schedule:Day Name
  4879fb07-a0f9-4e92-8872-17b1081e4b79, !- Monday Schedule:Day Name
  4879fb07-a0f9-4e92-8872-17b1081e4b79, !- Tuesday Schedule:Day Name
  4879fb07-a0f9-4e92-8872-17b1081e4b79, !- Wednesday Schedule:Day Name
  4879fb07-a0f9-4e92-8872-17b1081e4b79, !- Thursday Schedule:Day Name
  4879fb07-a0f9-4e92-8872-17b1081e4b79, !- Friday Schedule:Day Name
  1f46022c-dc35-4b1c-a5f3-48aafba85baa, !- Saturday Schedule:Day Name
  1f46022c-dc35-4b1c-a5f3-48aafba85baa, !- Holiday Schedule:Day Name
  1f46022c-dc35-4b1c-a5f3-48aafba85baa, !- SummerDesignDay Schedule:Day Name
  1f46022c-dc35-4b1c-a5f3-48aafba85baa, !- WinterDesignDay Schedule:Day Name
  1f46022c-dc35-4b1c-a5f3-48aafba85baa, !- CustomDay1 Schedule:Day Name
  1f46022c-dc35-4b1c-a5f3-48aafba85baa; !- CustomDay2 Schedule:Day Name

Schedule:Week:Daily, NECB-D-Thermostat Setpoint-Heating_15,
  1f46022c-dc35-4b1c-a5f3-48aafba85baa, !- Sunday Schedule:Day Name
  4879fb07-a0f9-4e92-8872-17b1081e4b79, !- Monday Schedule:Day Name
  4879fb07-a0f9-4e92-8872-17b1081e4b79, !- Tuesday Schedule:Day Name
  4879fb07-a0f9-4e92-8872-17b1081e4b79, !- Wednesday Schedule:Day Name
  4879fb07-a0f9-4e92-8872-17b1081e4b79, !- Thursday Schedule:Day Name
  4879fb07-a0f9-4e92-8872-17b1081e4b79, !- Friday Schedule:Day Name
  1f46022c-dc35-4b1c-a5f3-48aafba85baa, !- Saturday Schedule:Day Name
  1f46022c-dc35-4b1c-a5f3-48aafba85baa, !- Holiday Schedule:Day Name
  1f46022c-dc35-4b1c-a5f3-48aafba85baa, !- SummerDesignDay Schedule:Day Name
  1f46022c-dc35-4b1c-a5f3-48aafba85baa, !- WinterDesignDay Schedule:Day Name
  1f46022c-dc35-4b1c-a5f3-48aafba85baa, !- CustomDay1 Schedule:Day Name
  1f46022c-dc35-4b1c-a5f3-48aafba85baa; !- CustomDay2 Schedule:Day Name

Schedule:Week:Daily, NECB-D-Thermostat Setpoint-Heating_16,
  1f46022c-dc35-4b1c-a5f3-48aafba85baa, !- Sunday Schedule:Day Name
  4879fb07-a0f9-4e92-8872-17b1081e4b79, !- Monday Schedule:Day Name
  4879fb07-a0f9-4e92-8872-17b1081e4b79, !- Tuesday Schedule:Day Name
  4879fb07-a0f9-4e92-8872-17b1081e4b79, !- Wednesday Schedule:Day Name
  4879fb07-a0f9-4e92-8872-17b1081e4b79, !- Thursday Schedule:Day Name
  4879fb07-a0f9-4e92-8872-17b1081e4b79, !- Friday Schedule:Day Name
  1f46022c-dc35-4b1c-a5f3-48aafba85baa, !- Saturday Schedule:Day Name
  1f46022c-dc35-4b1c-a5f3-48aafba85baa, !- Holiday Schedule:Day Name
  1f46022c-dc35-4b1c-a5f3-48aafba85baa, !- SummerDesignDay Schedule:Day Name
  1f46022c-dc35-4b1c-a5f3-48aafba85baa, !- WinterDesignDay Schedule:Day Name
  1f46022c-dc35-4b1c-a5f3-48aafba85baa, !- CustomDay1 Schedule:Day Name
  1f46022c-dc35-4b1c-a5f3-48aafba85baa; !- CustomDay2 Schedule:Day Name

Schedule:Week:Daily, NECB-D-Thermostat Setpoint-Heating_17,
  1f46022c-dc35-4b1c-a5f3-48aafba85baa, !- Sunday Schedule:Day Name
  4879fb07-a0f9-4e92-8872-17b1081e4b79, !- Monday Schedule:Day Name
  4879fb07-a0f9-4e92-8872-17b1081e4b79, !- Tuesday Schedule:Day Name
  4879fb07-a0f9-4e92-8872-17b1081e4b79, !- Wednesday Schedule:Day Name
  4879fb07-a0f9-4e92-8872-17b1081e4b79, !- Thursday Schedule:Day Name
  4879fb07-a0f9-4e92-8872-17b1081e4b79, !- Friday Schedule:Day Name
  1f46022c-dc35-4b1c-a5f3-48aafba85baa, !- Saturday Schedule:Day Name
  1f46022c-dc35-4b1c-a5f3-48aafba85baa, !- Holiday Schedule:Day Name
  1f46022c-dc35-4b1c-a5f3-48aafba85baa, !- SummerDesignDay Schedule:Day Name
  1f46022c-dc35-4b1c-a5f3-48aafba85baa, !- WinterDesignDay Schedule:Day Name
  1f46022c-dc35-4b1c-a5f3-48aafba85baa, !- CustomDay1 Schedule:Day Name
  1f46022c-dc35-4b1c-a5f3-48aafba85baa; !- CustomDay2 Schedule:Day Name

Schedule:Week:Daily, NECB-D-Thermostat Setpoint-Heating_18,
  1f46022c-dc35-4b1c-a5f3-48aafba85baa, !- Sunday Schedule:Day Name
  4879fb07-a0f9-4e92-8872-17b1081e4b79, !- Monday Schedule:Day Name
  4879fb07-a0f9-4e92-8872-17b1081e4b79, !- Tuesday Schedule:Day Name
  4879fb07-a0f9-4e92-8872-17b1081e4b79, !- Wednesday Schedule:Day Name
  4879fb07-a0f9-4e92-8872-17b1081e4b79, !- Thursday Schedule:Day Name
  4879fb07-a0f9-4e92-8872-17b1081e4b79, !- Friday Schedule:Day Name
  1f46022c-dc35-4b1c-a5f3-48aafba85baa, !- Saturday Schedule:Day Name
  1f46022c-dc35-4b1c-a5f3-48aafba85baa, !- Holiday Schedule:Day Name
  1f46022c-dc35-4b1c-a5f3-48aafba85baa, !- SummerDesignDay Schedule:Day Name
  1f46022c-dc35-4b1c-a5f3-48aafba85baa, !- WinterDesignDay Schedule:Day Name
  1f46022c-dc35-4b1c-a5f3-48aafba85baa, !- CustomDay1 Schedule:Day Name
  1f46022c-dc35-4b1c-a5f3-48aafba85baa; !- CustomDay2 Schedule:Day Name

Schedule:Week:Daily, NECB-D-Thermostat Setpoint-Heating_19,
  1f46022c-dc35-4b1c-a5f3-48aafba85baa, !- Sunday Schedule:Day Name
  4879fb07-a0f9-4e92-8872-17b1081e4b79, !- Monday Schedule:Day Name
  4879fb07-a0f9-4e92-8872-17b1081e4b79, !- Tuesday Schedule:Day Name
  4879fb07-a0f9-4e92-8872-17b1081e4b79, !- Wednesday Schedule:Day Name
  4879fb07-a0f9-4e92-8872-17b1081e4b79, !- Thursday Schedule:Day Name
  4879fb07-a0f9-4e92-8872-17b1081e4b79, !- Friday Schedule:Day Name
  1f46022c-dc35-4b1c-a5f3-48aafba85baa, !- Saturday Schedule:Day Name
  1f46022c-dc35-4b1c-a5f3-48aafba85baa, !- Holiday Schedule:Day Name
  1f46022c-dc35-4b1c-a5f3-48aafba85baa, !- SummerDesignDay Schedule:Day Name
  1f46022c-dc35-4b1c-a5f3-48aafba85baa, !- WinterDesignDay Schedule:Day Name
  1f46022c-dc35-4b1c-a5f3-48aafba85baa, !- CustomDay1 Schedule:Day Name
  1f46022c-dc35-4b1c-a5f3-48aafba85baa; !- CustomDay2 Schedule:Day Name

Schedule:Week:Daily, NECB-D-Thermostat Setpoint-Heating_20,
  1f46022c-dc35-4b1c-a5f3-48aafba85baa, !- Sunday Schedule:Day Name
  4879fb07-a0f9-4e92-8872-17b1081e4b79, !- Monday Schedule:Day Name
  4879fb07-a0f9-4e92-8872-17b1081e4b79, !- Tuesday Schedule:Day Name
  4879fb07-a0f9-4e92-8872-17b1081e4b79, !- Wednesday Schedule:Day Name
  4879fb07-a0f9-4e92-8872-17b1081e4b79, !- Thursday Schedule:Day Name
  4879fb07-a0f9-4e92-8872-17b1081e4b79, !- Friday Schedule:Day Name
  1f46022c-dc35-4b1c-a5f3-48aafba85baa, !- Saturday Schedule:Day Name
  1f46022c-dc35-4b1c-a5f3-48aafba85baa, !- Holiday Schedule:Day Name
  1f46022c-dc35-4b1c-a5f3-48aafba85baa, !- SummerDesignDay Schedule:Day Name
  1f46022c-dc35-4b1c-a5f3-48aafba85baa, !- WinterDesignDay Schedule:Day Name
  1f46022c-dc35-4b1c-a5f3-48aafba85baa, !- CustomDay1 Schedule:Day Name
  1f46022c-dc35-4b1c-a5f3-48aafba85baa; !- CustomDay2 Schedule:Day Name

Schedule:Week:Daily, NECB-D-Thermostat Setpoint-Heating_21,
  1f46022c-dc35-4b1c-a5f3-48aafba85baa, !- Sunday Schedule:Day Name
  4879fb07-a0f9-4e92-8872-17b1081e4b79, !- Monday Schedule:Day Name
  4879fb07-a0f9-4e92-8872-17b1081e4b79, !- Tuesday Schedule:Day Name
  4879fb07-a0f9-4e92-8872-17b1081e4b79, !- Wednesday Schedule:Day Name
  4879fb07-a0f9-4e92-8872-17b1081e4b79, !- Thursday Schedule:Day Name
  4879fb07-a0f9-4e92-8872-17b1081e4b79, !- Friday Schedule:Day Name
  1f46022c-dc35-4b1c-a5f3-48aafba85baa, !- Saturday Schedule:Day Name
  1f46022c-dc35-4b1c-a5f3-48aafba85baa, !- Holiday Schedule:Day Name
  1f46022c-dc35-4b1c-a5f3-48aafba85baa, !- SummerDesignDay Schedule:Day Name
  1f46022c-dc35-4b1c-a5f3-48aafba85baa, !- WinterDesignDay Schedule:Day Name
  1f46022c-dc35-4b1c-a5f3-48aafba85baa, !- CustomDay1 Schedule:Day Name
  1f46022c-dc35-4b1c-a5f3-48aafba85baa; !- CustomDay2 Schedule:Day Name

Schedule:Week:Daily, NECB-D-Thermostat Setpoint-Heating_22,
  1f46022c-dc35-4b1c-a5f3-48aafba85baa, !- Sunday Schedule:Day Name
  4879fb07-a0f9-4e92-8872-17b1081e4b79, !- Monday Schedule:Day Name
  4879fb07-a0f9-4e92-8872-17b1081e4b79, !- Tuesday Schedule:Day Name
  4879fb07-a0f9-4e92-8872-17b1081e4b79, !- Wednesday Schedule:Day Name
  4879fb07-a0f9-4e92-8872-17b1081e4b79, !- Thursday Schedule:Day Name
  4879fb07-a0f9-4e92-8872-17b1081e4b79, !- Friday Schedule:Day Name
  1f46022c-dc35-4b1c-a5f3-48aafba85baa, !- Saturday Schedule:Day Name
  1f46022c-dc35-4b1c-a5f3-48aafba85baa, !- Holiday Schedule:Day Name
  1f46022c-dc35-4b1c-a5f3-48aafba85baa, !- SummerDesignDay Schedule:Day Name
  1f46022c-dc35-4b1c-a5f3-48aafba85baa, !- WinterDesignDay Schedule:Day Name
  1f46022c-dc35-4b1c-a5f3-48aafba85baa, !- CustomDay1 Schedule:Day Name
  1f46022c-dc35-4b1c-a5f3-48aafba85baa; !- CustomDay2 Schedule:Day Name

Schedule:Week:Daily, NECB-D-Thermostat Setpoint-Heating_23,
  1f46022c-dc35-4b1c-a5f3-48aafba85baa, !- Sunday Schedule:Day Name
  4879fb07-a0f9-4e92-8872-17b1081e4b79, !- Monday Schedule:Day Name
  4879fb07-a0f9-4e92-8872-17b1081e4b79, !- Tuesday Schedule:Day Name
  4879fb07-a0f9-4e92-8872-17b1081e4b79, !- Wednesday Schedule:Day Name
  4879fb07-a0f9-4e92-8872-17b1081e4b79, !- Thursday Schedule:Day Name
  4879fb07-a0f9-4e92-8872-17b1081e4b79, !- Friday Schedule:Day Name
  1f46022c-dc35-4b1c-a5f3-48aafba85baa, !- Saturday Schedule:Day Name
  1f46022c-dc35-4b1c-a5f3-48aafba85baa, !- Holiday Schedule:Day Name
  1f46022c-dc35-4b1c-a5f3-48aafba85baa, !- SummerDesignDay Schedule:Day Name
  1f46022c-dc35-4b1c-a5f3-48aafba85baa, !- WinterDesignDay Schedule:Day Name
  1f46022c-dc35-4b1c-a5f3-48aafba85baa, !- CustomDay1 Schedule:Day Name
  1f46022c-dc35-4b1c-a5f3-48aafba85baa; !- CustomDay2 Schedule:Day Name

Schedule:Week:Daily, NECB-D-Thermostat Setpoint-Heating_24,
  1f46022c-dc35-4b1c-a5f3-48aafba85baa, !- Sunday Schedule:Day Name
  4879fb07-a0f9-4e92-8872-17b1081e4b79, !- Monday Schedule:Day Name
  4879fb07-a0f9-4e92-8872-17b1081e4b79, !- Tuesday Schedule:Day Name
  4879fb07-a0f9-4e92-8872-17b1081e4b79, !- Wednesday Schedule:Day Name
  4879fb07-a0f9-4e92-8872-17b1081e4b79, !- Thursday Schedule:Day Name
  4879fb07-a0f9-4e92-8872-17b1081e4b79, !- Friday Schedule:Day Name
  1f46022c-dc35-4b1c-a5f3-48aafba85baa, !- Saturday Schedule:Day Name
  1f46022c-dc35-4b1c-a5f3-48aafba85baa, !- Holiday Schedule:Day Name
  1f46022c-dc35-4b1c-a5f3-48aafba85baa, !- SummerDesignDay Schedule:Day Name
  1f46022c-dc35-4b1c-a5f3-48aafba85baa, !- WinterDesignDay Schedule:Day Name
  1f46022c-dc35-4b1c-a5f3-48aafba85baa, !- CustomDay1 Schedule:Day Name
  1f46022c-dc35-4b1c-a5f3-48aafba85baa; !- CustomDay2 Schedule:Day Name

Schedule:Week:Daily, NECB-D-Thermostat Setpoint-Heating_25,
  1f46022c-dc35-4b1c-a5f3-48aafba85baa, !- Sunday Schedule:Day Name
  4879fb07-a0f9-4e92-8872-17b1081e4b79, !- Monday Schedule:Day Name
  4879fb07-a0f9-4e92-8872-17b1081e4b79, !- Tuesday Schedule:Day Name
  4879fb07-a0f9-4e92-8872-17b1081e4b79, !- Wednesday Schedule:Day Name
  4879fb07-a0f9-4e92-8872-17b1081e4b79, !- Thursday Schedule:Day Name
  4879fb07-a0f9-4e92-8872-17b1081e4b79, !- Friday Schedule:Day Name
  1f46022c-dc35-4b1c-a5f3-48aafba85baa, !- Saturday Schedule:Day Name
  1f46022c-dc35-4b1c-a5f3-48aafba85baa, !- Holiday Schedule:Day Name
  1f46022c-dc35-4b1c-a5f3-48aafba85baa, !- SummerDesignDay Schedule:Day Name
  1f46022c-dc35-4b1c-a5f3-48aafba85baa, !- WinterDesignDay Schedule:Day Name
  1f46022c-dc35-4b1c-a5f3-48aafba85baa, !- CustomDay1 Schedule:Day Name
  1f46022c-dc35-4b1c-a5f3-48aafba85baa; !- CustomDay2 Schedule:Day Name

Schedule:Week:Daily, NECB-D-Thermostat Setpoint-Heating_26,
  1f46022c-dc35-4b1c-a5f3-48aafba85baa, !- Sunday Schedule:Day Name
  4879fb07-a0f9-4e92-8872-17b1081e4b79, !- Monday Schedule:Day Name
  4879fb07-a0f9-4e92-8872-17b1081e4b79, !- Tuesday Schedule:Day Name
  4879fb07-a0f9-4e92-8872-17b1081e4b79, !- Wednesday Schedule:Day Name
  4879fb07-a0f9-4e92-8872-17b1081e4b79, !- Thursday Schedule:Day Name
  4879fb07-a0f9-4e92-8872-17b1081e4b79, !- Friday Schedule:Day Name
  1f46022c-dc35-4b1c-a5f3-48aafba85baa, !- Saturday Schedule:Day Name
  1f46022c-dc35-4b1c-a5f3-48aafba85baa, !- Holiday Schedule:Day Name
  1f46022c-dc35-4b1c-a5f3-48aafba85baa, !- SummerDesignDay Schedule:Day Name
  1f46022c-dc35-4b1c-a5f3-48aafba85baa, !- WinterDesignDay Schedule:Day Name
  1f46022c-dc35-4b1c-a5f3-48aafba85baa, !- CustomDay1 Schedule:Day Name
  1f46022c-dc35-4b1c-a5f3-48aafba85baa; !- CustomDay2 Schedule:Day Name

Schedule:Week:Daily, NECB-D-Thermostat Setpoint-Heating_27,
  1f46022c-dc35-4b1c-a5f3-48aafba85baa, !- Sunday Schedule:Day Name
  4879fb07-a0f9-4e92-8872-17b1081e4b79, !- Monday Schedule:Day Name
  4879fb07-a0f9-4e92-8872-17b1081e4b79, !- Tuesday Schedule:Day Name
  4879fb07-a0f9-4e92-8872-17b1081e4b79, !- Wednesday Schedule:Day Name
  4879fb07-a0f9-4e92-8872-17b1081e4b79, !- Thursday Schedule:Day Name
  4879fb07-a0f9-4e92-8872-17b1081e4b79, !- Friday Schedule:Day Name
  1f46022c-dc35-4b1c-a5f3-48aafba85baa, !- Saturday Schedule:Day Name
  1f46022c-dc35-4b1c-a5f3-48aafba85baa, !- Holiday Schedule:Day Name
  1f46022c-dc35-4b1c-a5f3-48aafba85baa, !- SummerDesignDay Schedule:Day Name
  1f46022c-dc35-4b1c-a5f3-48aafba85baa, !- WinterDesignDay Schedule:Day Name
  1f46022c-dc35-4b1c-a5f3-48aafba85baa, !- CustomDay1 Schedule:Day Name
  1f46022c-dc35-4b1c-a5f3-48aafba85baa; !- CustomDay2 Schedule:Day Name

Schedule:Week:Daily, NECB-D-Thermostat Setpoint-Heating_28,
  1f46022c-dc35-4b1c-a5f3-48aafba85baa, !- Sunday Schedule:Day Name
  4879fb07-a0f9-4e92-8872-17b1081e4b79, !- Monday Schedule:Day Name
  4879fb07-a0f9-4e92-8872-17b1081e4b79, !- Tuesday Schedule:Day Name
  4879fb07-a0f9-4e92-8872-17b1081e4b79, !- Wednesday Schedule:Day Name
  4879fb07-a0f9-4e92-8872-17b1081e4b79, !- Thursday Schedule:Day Name
  4879fb07-a0f9-4e92-8872-17b1081e4b79, !- Friday Schedule:Day Name
  1f46022c-dc35-4b1c-a5f3-48aafba85baa, !- Saturday Schedule:Day Name
  1f46022c-dc35-4b1c-a5f3-48aafba85baa, !- Holiday Schedule:Day Name
  1f46022c-dc35-4b1c-a5f3-48aafba85baa, !- SummerDesignDay Schedule:Day Name
  1f46022c-dc35-4b1c-a5f3-48aafba85baa, !- WinterDesignDay Schedule:Day Name
  1f46022c-dc35-4b1c-a5f3-48aafba85baa, !- CustomDay1 Schedule:Day Name
  1f46022c-dc35-4b1c-a5f3-48aafba85baa; !- CustomDay2 Schedule:Day Name

Schedule:Week:Daily, NECB-D-Thermostat Setpoint-Heating_29,
  1f46022c-dc35-4b1c-a5f3-48aafba85baa, !- Sunday Schedule:Day Name
  4879fb07-a0f9-4e92-8872-17b1081e4b79, !- Monday Schedule:Day Name
  4879fb07-a0f9-4e92-8872-17b1081e4b79, !- Tuesday Schedule:Day Name
  4879fb07-a0f9-4e92-8872-17b1081e4b79, !- Wednesday Schedule:Day Name
  4879fb07-a0f9-4e92-8872-17b1081e4b79, !- Thursday Schedule:Day Name
  4879fb07-a0f9-4e92-8872-17b1081e4b79, !- Friday Schedule:Day Name
  1f46022c-dc35-4b1c-a5f3-48aafba85baa, !- Saturday Schedule:Day Name
  1f46022c-dc35-4b1c-a5f3-48aafba85baa, !- Holiday Schedule:Day Name
  1f46022c-dc35-4b1c-a5f3-48aafba85baa, !- SummerDesignDay Schedule:Day Name
  1f46022c-dc35-4b1c-a5f3-48aafba85baa, !- WinterDesignDay Schedule:Day Name
  1f46022c-dc35-4b1c-a5f3-48aafba85baa, !- CustomDay1 Schedule:Day Name
  1f46022c-dc35-4b1c-a5f3-48aafba85baa; !- CustomDay2 Schedule:Day Name

Schedule:Week:Daily, NECB-D-Thermostat Setpoint-Heating_30,
  1f46022c-dc35-4b1c-a5f3-48aafba85baa, !- Sunday Schedule:Day Name
  4879fb07-a0f9-4e92-8872-17b1081e4b79, !- Monday Schedule:Day Name
  4879fb07-a0f9-4e92-8872-17b1081e4b79, !- Tuesday Schedule:Day Name
  4879fb07-a0f9-4e92-8872-17b1081e4b79, !- Wednesday Schedule:Day Name
  4879fb07-a0f9-4e92-8872-17b1081e4b79, !- Thursday Schedule:Day Name
  4879fb07-a0f9-4e92-8872-17b1081e4b79, !- Friday Schedule:Day Name
  1f46022c-dc35-4b1c-a5f3-48aafba85baa, !- Saturday Schedule:Day Name
  1f46022c-dc35-4b1c-a5f3-48aafba85baa, !- Holiday Schedule:Day Name
  1f46022c-dc35-4b1c-a5f3-48aafba85baa, !- SummerDesignDay Schedule:Day Name
  1f46022c-dc35-4b1c-a5f3-48aafba85baa, !- WinterDesignDay Schedule:Day Name
  1f46022c-dc35-4b1c-a5f3-48aafba85baa, !- CustomDay1 Schedule:Day Name
  1f46022c-dc35-4b1c-a5f3-48aafba85baa; !- CustomDay2 Schedule:Day Name

Schedule:Week:Daily, NECB-D-Thermostat Setpoint-Heating_31,
  1f46022c-dc35-4b1c-a5f3-48aafba85baa, !- Sunday Schedule:Day Name
  4879fb07-a0f9-4e92-8872-17b1081e4b79, !- Monday Schedule:Day Name
  4879fb07-a0f9-4e92-8872-17b1081e4b79, !- Tuesday Schedule:Day Name
  4879fb07-a0f9-4e92-8872-17b1081e4b79, !- Wednesday Schedule:Day Name
  4879fb07-a0f9-4e92-8872-17b1081e4b79, !- Thursday Schedule:Day Name
  4879fb07-a0f9-4e92-8872-17b1081e4b79, !- Friday Schedule:Day Name
  1f46022c-dc35-4b1c-a5f3-48aafba85baa, !- Saturday Schedule:Day Name
  1f46022c-dc35-4b1c-a5f3-48aafba85baa, !- Holiday Schedule:Day Name
  1f46022c-dc35-4b1c-a5f3-48aafba85baa, !- SummerDesignDay Schedule:Day Name
  1f46022c-dc35-4b1c-a5f3-48aafba85baa, !- WinterDesignDay Schedule:Day Name
  1f46022c-dc35-4b1c-a5f3-48aafba85baa, !- CustomDay1 Schedule:Day Name
  1f46022c-dc35-4b1c-a5f3-48aafba85baa; !- CustomDay2 Schedule:Day Name

Schedule:Week:Daily, NECB-D-Thermostat Setpoint-Heating_32,
  1f46022c-dc35-4b1c-a5f3-48aafba85baa, !- Sunday Schedule:Day Name
  4879fb07-a0f9-4e92-8872-17b1081e4b79, !- Monday Schedule:Day Name
  4879fb07-a0f9-4e92-8872-17b1081e4b79, !- Tuesday Schedule:Day Name
  4879fb07-a0f9-4e92-8872-17b1081e4b79, !- Wednesday Schedule:Day Name
  4879fb07-a0f9-4e92-8872-17b1081e4b79, !- Thursday Schedule:Day Name
  4879fb07-a0f9-4e92-8872-17b1081e4b79, !- Friday Schedule:Day Name
  1f46022c-dc35-4b1c-a5f3-48aafba85baa, !- Saturday Schedule:Day Name
  1f46022c-dc35-4b1c-a5f3-48aafba85baa, !- Holiday Schedule:Day Name
  1f46022c-dc35-4b1c-a5f3-48aafba85baa, !- SummerDesignDay Schedule:Day Name
  1f46022c-dc35-4b1c-a5f3-48aafba85baa, !- WinterDesignDay Schedule:Day Name
  1f46022c-dc35-4b1c-a5f3-48aafba85baa, !- CustomDay1 Schedule:Day Name
  1f46022c-dc35-4b1c-a5f3-48aafba85baa; !- CustomDay2 Schedule:Day Name

Schedule:Week:Daily, NECB-D-Thermostat Setpoint-Heating_33,
  1f46022c-dc35-4b1c-a5f3-48aafba85baa, !- Sunday Schedule:Day Name
  4879fb07-a0f9-4e92-8872-17b1081e4b79, !- Monday Schedule:Day Name
  4879fb07-a0f9-4e92-8872-17b1081e4b79, !- Tuesday Schedule:Day Name
  4879fb07-a0f9-4e92-8872-17b1081e4b79, !- Wednesday Schedule:Day Name
  4879fb07-a0f9-4e92-8872-17b1081e4b79, !- Thursday Schedule:Day Name
  4879fb07-a0f9-4e92-8872-17b1081e4b79, !- Friday Schedule:Day Name
  1f46022c-dc35-4b1c-a5f3-48aafba85baa, !- Saturday Schedule:Day Name
  1f46022c-dc35-4b1c-a5f3-48aafba85baa, !- Holiday Schedule:Day Name
  1f46022c-dc35-4b1c-a5f3-48aafba85baa, !- SummerDesignDay Schedule:Day Name
  1f46022c-dc35-4b1c-a5f3-48aafba85baa, !- WinterDesignDay Schedule:Day Name
  1f46022c-dc35-4b1c-a5f3-48aafba85baa, !- CustomDay1 Schedule:Day Name
  1f46022c-dc35-4b1c-a5f3-48aafba85baa; !- CustomDay2 Schedule:Day Name

Schedule:Week:Daily, NECB-D-Thermostat Setpoint-Heating_34,
  1f46022c-dc35-4b1c-a5f3-48aafba85baa, !- Sunday Schedule:Day Name
  4879fb07-a0f9-4e92-8872-17b1081e4b79, !- Monday Schedule:Day Name
  4879fb07-a0f9-4e92-8872-17b1081e4b79, !- Tuesday Schedule:Day Name
  4879fb07-a0f9-4e92-8872-17b1081e4b79, !- Wednesday Schedule:Day Name
  4879fb07-a0f9-4e92-8872-17b1081e4b79, !- Thursday Schedule:Day Name
  4879fb07-a0f9-4e92-8872-17b1081e4b79, !- Friday Schedule:Day Name
  1f46022c-dc35-4b1c-a5f3-48aafba85baa, !- Saturday Schedule:Day Name
  1f46022c-dc35-4b1c-a5f3-48aafba85baa, !- Holiday Schedule:Day Name
  1f46022c-dc35-4b1c-a5f3-48aafba85baa, !- SummerDesignDay Schedule:Day Name
  1f46022c-dc35-4b1c-a5f3-48aafba85baa, !- WinterDesignDay Schedule:Day Name
  1f46022c-dc35-4b1c-a5f3-48aafba85baa, !- CustomDay1 Schedule:Day Name
  1f46022c-dc35-4b1c-a5f3-48aafba85baa; !- CustomDay2 Schedule:Day Name

Schedule:Week:Daily, NECB-D-Thermostat Setpoint-Heating_35,
  1f46022c-dc35-4b1c-a5f3-48aafba85baa, !- Sunday Schedule:Day Name
  4879fb07-a0f9-4e92-8872-17b1081e4b79, !- Monday Schedule:Day Name
  4879fb07-a0f9-4e92-8872-17b1081e4b79, !- Tuesday Schedule:Day Name
  4879fb07-a0f9-4e92-8872-17b1081e4b79, !- Wednesday Schedule:Day Name
  4879fb07-a0f9-4e92-8872-17b1081e4b79, !- Thursday Schedule:Day Name
  4879fb07-a0f9-4e92-8872-17b1081e4b79, !- Friday Schedule:Day Name
  1f46022c-dc35-4b1c-a5f3-48aafba85baa, !- Saturday Schedule:Day Name
  1f46022c-dc35-4b1c-a5f3-48aafba85baa, !- Holiday Schedule:Day Name
  1f46022c-dc35-4b1c-a5f3-48aafba85baa, !- SummerDesignDay Schedule:Day Name
  1f46022c-dc35-4b1c-a5f3-48aafba85baa, !- WinterDesignDay Schedule:Day Name
  1f46022c-dc35-4b1c-a5f3-48aafba85baa, !- CustomDay1 Schedule:Day Name
  1f46022c-dc35-4b1c-a5f3-48aafba85baa; !- CustomDay2 Schedule:Day Name

Schedule:Week:Daily, NECB-D-Thermostat Setpoint-Heating_36,
  1f46022c-dc35-4b1c-a5f3-48aafba85baa, !- Sunday Schedule:Day Name
  4879fb07-a0f9-4e92-8872-17b1081e4b79, !- Monday Schedule:Day Name
  4879fb07-a0f9-4e92-8872-17b1081e4b79, !- Tuesday Schedule:Day Name
  4879fb07-a0f9-4e92-8872-17b1081e4b79, !- Wednesday Schedule:Day Name
  4879fb07-a0f9-4e92-8872-17b1081e4b79, !- Thursday Schedule:Day Name
  4879fb07-a0f9-4e92-8872-17b1081e4b79, !- Friday Schedule:Day Name
  1f46022c-dc35-4b1c-a5f3-48aafba85baa, !- Saturday Schedule:Day Name
  1f46022c-dc35-4b1c-a5f3-48aafba85baa, !- Holiday Schedule:Day Name
  1f46022c-dc35-4b1c-a5f3-48aafba85baa, !- SummerDesignDay Schedule:Day Name
  1f46022c-dc35-4b1c-a5f3-48aafba85baa, !- WinterDesignDay Schedule:Day Name
  1f46022c-dc35-4b1c-a5f3-48aafba85baa, !- CustomDay1 Schedule:Day Name
  1f46022c-dc35-4b1c-a5f3-48aafba85baa; !- CustomDay2 Schedule:Day Name

Schedule:Week:Daily, NECB-D-Thermostat Setpoint-Heating_37,
  1f46022c-dc35-4b1c-a5f3-48aafba85baa, !- Sunday Schedule:Day Name
  4879fb07-a0f9-4e92-8872-17b1081e4b79, !- Monday Schedule:Day Name
  4879fb07-a0f9-4e92-8872-17b1081e4b79, !- Tuesday Schedule:Day Name
  4879fb07-a0f9-4e92-8872-17b1081e4b79, !- Wednesday Schedule:Day Name
  4879fb07-a0f9-4e92-8872-17b1081e4b79, !- Thursday Schedule:Day Name
  4879fb07-a0f9-4e92-8872-17b1081e4b79, !- Friday Schedule:Day Name
  1f46022c-dc35-4b1c-a5f3-48aafba85baa, !- Saturday Schedule:Day Name
  1f46022c-dc35-4b1c-a5f3-48aafba85baa, !- Holiday Schedule:Day Name
  1f46022c-dc35-4b1c-a5f3-48aafba85baa, !- SummerDesignDay Schedule:Day Name
  1f46022c-dc35-4b1c-a5f3-48aafba85baa, !- WinterDesignDay Schedule:Day Name
  1f46022c-dc35-4b1c-a5f3-48aafba85baa, !- CustomDay1 Schedule:Day Name
  1f46022c-dc35-4b1c-a5f3-48aafba85baa; !- CustomDay2 Schedule:Day Name

Schedule:Week:Daily, NECB-D-Thermostat Setpoint-Heating_38,
  1f46022c-dc35-4b1c-a5f3-48aafba85baa, !- Sunday Schedule:Day Name
  4879fb07-a0f9-4e92-8872-17b1081e4b79, !- Monday Schedule:Day Name
  4879fb07-a0f9-4e92-8872-17b1081e4b79, !- Tuesday Schedule:Day Name
  4879fb07-a0f9-4e92-8872-17b1081e4b79, !- Wednesday Schedule:Day Name
  4879fb07-a0f9-4e92-8872-17b1081e4b79, !- Thursday Schedule:Day Name
  4879fb07-a0f9-4e92-8872-17b1081e4b79, !- Friday Schedule:Day Name
  1f46022c-dc35-4b1c-a5f3-48aafba85baa, !- Saturday Schedule:Day Name
  1f46022c-dc35-4b1c-a5f3-48aafba85baa, !- Holiday Schedule:Day Name
  1f46022c-dc35-4b1c-a5f3-48aafba85baa, !- SummerDesignDay Schedule:Day Name
  1f46022c-dc35-4b1c-a5f3-48aafba85baa, !- WinterDesignDay Schedule:Day Name
  1f46022c-dc35-4b1c-a5f3-48aafba85baa, !- CustomDay1 Schedule:Day Name
  1f46022c-dc35-4b1c-a5f3-48aafba85baa; !- CustomDay2 Schedule:Day Name

Schedule:Week:Daily, NECB-D-Thermostat Setpoint-Heating_39,
  1f46022c-dc35-4b1c-a5f3-48aafba85baa, !- Sunday Schedule:Day Name
  4879fb07-a0f9-4e92-8872-17b1081e4b79, !- Monday Schedule:Day Name
  4879fb07-a0f9-4e92-8872-17b1081e4b79, !- Tuesday Schedule:Day Name
  4879fb07-a0f9-4e92-8872-17b1081e4b79, !- Wednesday Schedule:Day Name
  4879fb07-a0f9-4e92-8872-17b1081e4b79, !- Thursday Schedule:Day Name
  4879fb07-a0f9-4e92-8872-17b1081e4b79, !- Friday Schedule:Day Name
  1f46022c-dc35-4b1c-a5f3-48aafba85baa, !- Saturday Schedule:Day Name
  1f46022c-dc35-4b1c-a5f3-48aafba85baa, !- Holiday Schedule:Day Name
  1f46022c-dc35-4b1c-a5f3-48aafba85baa, !- SummerDesignDay Schedule:Day Name
  1f46022c-dc35-4b1c-a5f3-48aafba85baa, !- WinterDesignDay Schedule:Day Name
  1f46022c-dc35-4b1c-a5f3-48aafba85baa, !- CustomDay1 Schedule:Day Name
  1f46022c-dc35-4b1c-a5f3-48aafba85baa; !- CustomDay2 Schedule:Day Name

Schedule:Week:Daily, NECB-D-Thermostat Setpoint-Heating_40,
  1f46022c-dc35-4b1c-a5f3-48aafba85baa, !- Sunday Schedule:Day Name
  4879fb07-a0f9-4e92-8872-17b1081e4b79, !- Monday Schedule:Day Name
  4879fb07-a0f9-4e92-8872-17b1081e4b79, !- Tuesday Schedule:Day Name
  4879fb07-a0f9-4e92-8872-17b1081e4b79, !- Wednesday Schedule:Day Name
  4879fb07-a0f9-4e92-8872-17b1081e4b79, !- Thursday Schedule:Day Name
  4879fb07-a0f9-4e92-8872-17b1081e4b79, !- Friday Schedule:Day Name
  1f46022c-dc35-4b1c-a5f3-48aafba85baa, !- Saturday Schedule:Day Name
  1f46022c-dc35-4b1c-a5f3-48aafba85baa, !- Holiday Schedule:Day Name
  1f46022c-dc35-4b1c-a5f3-48aafba85baa, !- SummerDesignDay Schedule:Day Name
  1f46022c-dc35-4b1c-a5f3-48aafba85baa, !- WinterDesignDay Schedule:Day Name
  1f46022c-dc35-4b1c-a5f3-48aafba85baa, !- CustomDay1 Schedule:Day Name
  1f46022c-dc35-4b1c-a5f3-48aafba85baa; !- CustomDay2 Schedule:Day Name

Schedule:Week:Daily, NECB-D-Thermostat Setpoint-Heating_41,
  1f46022c-dc35-4b1c-a5f3-48aafba85baa, !- Sunday Schedule:Day Name
  4879fb07-a0f9-4e92-8872-17b1081e4b79, !- Monday Schedule:Day Name
  4879fb07-a0f9-4e92-8872-17b1081e4b79, !- Tuesday Schedule:Day Name
  4879fb07-a0f9-4e92-8872-17b1081e4b79, !- Wednesday Schedule:Day Name
  4879fb07-a0f9-4e92-8872-17b1081e4b79, !- Thursday Schedule:Day Name
  4879fb07-a0f9-4e92-8872-17b1081e4b79, !- Friday Schedule:Day Name
  1f46022c-dc35-4b1c-a5f3-48aafba85baa, !- Saturday Schedule:Day Name
  1f46022c-dc35-4b1c-a5f3-48aafba85baa, !- Holiday Schedule:Day Name
  1f46022c-dc35-4b1c-a5f3-48aafba85baa, !- SummerDesignDay Schedule:Day Name
  1f46022c-dc35-4b1c-a5f3-48aafba85baa, !- WinterDesignDay Schedule:Day Name
  1f46022c-dc35-4b1c-a5f3-48aafba85baa, !- CustomDay1 Schedule:Day Name
  1f46022c-dc35-4b1c-a5f3-48aafba85baa; !- CustomDay2 Schedule:Day Name

Schedule:Week:Daily, NECB-D-Thermostat Setpoint-Heating_42,
  1f46022c-dc35-4b1c-a5f3-48aafba85baa, !- Sunday Schedule:Day Name
  4879fb07-a0f9-4e92-8872-17b1081e4b79, !- Monday Schedule:Day Name
  4879fb07-a0f9-4e92-8872-17b1081e4b79, !- Tuesday Schedule:Day Name
  4879fb07-a0f9-4e92-8872-17b1081e4b79, !- Wednesday Schedule:Day Name
  4879fb07-a0f9-4e92-8872-17b1081e4b79, !- Thursday Schedule:Day Name
  4879fb07-a0f9-4e92-8872-17b1081e4b79, !- Friday Schedule:Day Name
  1f46022c-dc35-4b1c-a5f3-48aafba85baa, !- Saturday Schedule:Day Name
  1f46022c-dc35-4b1c-a5f3-48aafba85baa, !- Holiday Schedule:Day Name
  1f46022c-dc35-4b1c-a5f3-48aafba85baa, !- SummerDesignDay Schedule:Day Name
  1f46022c-dc35-4b1c-a5f3-48aafba85baa, !- WinterDesignDay Schedule:Day Name
  1f46022c-dc35-4b1c-a5f3-48aafba85baa, !- CustomDay1 Schedule:Day Name
  1f46022c-dc35-4b1c-a5f3-48aafba85baa; !- CustomDay2 Schedule:Day Name

Schedule:Week:Daily, NECB-D-Thermostat Setpoint-Heating_43,
  1f46022c-dc35-4b1c-a5f3-48aafba85baa, !- Sunday Schedule:Day Name
  4879fb07-a0f9-4e92-8872-17b1081e4b79, !- Monday Schedule:Day Name
  4879fb07-a0f9-4e92-8872-17b1081e4b79, !- Tuesday Schedule:Day Name
  4879fb07-a0f9-4e92-8872-17b1081e4b79, !- Wednesday Schedule:Day Name
  4879fb07-a0f9-4e92-8872-17b1081e4b79, !- Thursday Schedule:Day Name
  4879fb07-a0f9-4e92-8872-17b1081e4b79, !- Friday Schedule:Day Name
  1f46022c-dc35-4b1c-a5f3-48aafba85baa, !- Saturday Schedule:Day Name
  1f46022c-dc35-4b1c-a5f3-48aafba85baa, !- Holiday Schedule:Day Name
  1f46022c-dc35-4b1c-a5f3-48aafba85baa, !- SummerDesignDay Schedule:Day Name
  1f46022c-dc35-4b1c-a5f3-48aafba85baa, !- WinterDesignDay Schedule:Day Name
  1f46022c-dc35-4b1c-a5f3-48aafba85baa, !- CustomDay1 Schedule:Day Name
  1f46022c-dc35-4b1c-a5f3-48aafba85baa; !- CustomDay2 Schedule:Day Name

Schedule:Week:Daily, NECB-D-Thermostat Setpoint-Heating_44,
  1f46022c-dc35-4b1c-a5f3-48aafba85baa, !- Sunday Schedule:Day Name
  4879fb07-a0f9-4e92-8872-17b1081e4b79, !- Monday Schedule:Day Name
  4879fb07-a0f9-4e92-8872-17b1081e4b79, !- Tuesday Schedule:Day Name
  4879fb07-a0f9-4e92-8872-17b1081e4b79, !- Wednesday Schedule:Day Name
  4879fb07-a0f9-4e92-8872-17b1081e4b79, !- Thursday Schedule:Day Name
  4879fb07-a0f9-4e92-8872-17b1081e4b79, !- Friday Schedule:Day Name
  1f46022c-dc35-4b1c-a5f3-48aafba85baa, !- Saturday Schedule:Day Name
  1f46022c-dc35-4b1c-a5f3-48aafba85baa, !- Holiday Schedule:Day Name
  1f46022c-dc35-4b1c-a5f3-48aafba85baa, !- SummerDesignDay Schedule:Day Name
  1f46022c-dc35-4b1c-a5f3-48aafba85baa, !- WinterDesignDay Schedule:Day Name
  1f46022c-dc35-4b1c-a5f3-48aafba85baa, !- CustomDay1 Schedule:Day Name
  1f46022c-dc35-4b1c-a5f3-48aafba85baa; !- CustomDay2 Schedule:Day Name

Schedule:Week:Daily, NECB-D-Thermostat Setpoint-Heating_45,
  1f46022c-dc35-4b1c-a5f3-48aafba85baa, !- Sunday Schedule:Day Name
  4879fb07-a0f9-4e92-8872-17b1081e4b79, !- Monday Schedule:Day Name
  4879fb07-a0f9-4e92-8872-17b1081e4b79, !- Tuesday Schedule:Day Name
  4879fb07-a0f9-4e92-8872-17b1081e4b79, !- Wednesday Schedule:Day Name
  4879fb07-a0f9-4e92-8872-17b1081e4b79, !- Thursday Schedule:Day Name
  4879fb07-a0f9-4e92-8872-17b1081e4b79, !- Friday Schedule:Day Name
  1f46022c-dc35-4b1c-a5f3-48aafba85baa, !- Saturday Schedule:Day Name
  1f46022c-dc35-4b1c-a5f3-48aafba85baa, !- Holiday Schedule:Day Name
  1f46022c-dc35-4b1c-a5f3-48aafba85baa, !- SummerDesignDay Schedule:Day Name
  1f46022c-dc35-4b1c-a5f3-48aafba85baa, !- WinterDesignDay Schedule:Day Name
  1f46022c-dc35-4b1c-a5f3-48aafba85baa, !- CustomDay1 Schedule:Day Name
  1f46022c-dc35-4b1c-a5f3-48aafba85baa; !- CustomDay2 Schedule:Day Name

Schedule:Week:Daily, NECB-D-Thermostat Setpoint-Heating_46,
  1f46022c-dc35-4b1c-a5f3-48aafba85baa, !- Sunday Schedule:Day Name
  4879fb07-a0f9-4e92-8872-17b1081e4b79, !- Monday Schedule:Day Name
  4879fb07-a0f9-4e92-8872-17b1081e4b79, !- Tuesday Schedule:Day Name
  4879fb07-a0f9-4e92-8872-17b1081e4b79, !- Wednesday Schedule:Day Name
  4879fb07-a0f9-4e92-8872-17b1081e4b79, !- Thursday Schedule:Day Name
  4879fb07-a0f9-4e92-8872-17b1081e4b79, !- Friday Schedule:Day Name
  1f46022c-dc35-4b1c-a5f3-48aafba85baa, !- Saturday Schedule:Day Name
  1f46022c-dc35-4b1c-a5f3-48aafba85baa, !- Holiday Schedule:Day Name
  1f46022c-dc35-4b1c-a5f3-48aafba85baa, !- SummerDesignDay Schedule:Day Name
  1f46022c-dc35-4b1c-a5f3-48aafba85baa, !- WinterDesignDay Schedule:Day Name
  1f46022c-dc35-4b1c-a5f3-48aafba85baa, !- CustomDay1 Schedule:Day Name
  1f46022c-dc35-4b1c-a5f3-48aafba85baa; !- CustomDay2 Schedule:Day Name

Schedule:Week:Daily, NECB-D-Thermostat Setpoint-Heating_47,
  1f46022c-dc35-4b1c-a5f3-48aafba85baa, !- Sunday Schedule:Day Name
  4879fb07-a0f9-4e92-8872-17b1081e4b79, !- Monday Schedule:Day Name
  4879fb07-a0f9-4e92-8872-17b1081e4b79, !- Tuesday Schedule:Day Name
  4879fb07-a0f9-4e92-8872-17b1081e4b79, !- Wednesday Schedule:Day Name
  4879fb07-a0f9-4e92-8872-17b1081e4b79, !- Thursday Schedule:Day Name
  4879fb07-a0f9-4e92-8872-17b1081e4b79, !- Friday Schedule:Day Name
  1f46022c-dc35-4b1c-a5f3-48aafba85baa, !- Saturday Schedule:Day Name
  1f46022c-dc35-4b1c-a5f3-48aafba85baa, !- Holiday Schedule:Day Name
  1f46022c-dc35-4b1c-a5f3-48aafba85baa, !- SummerDesignDay Schedule:Day Name
  1f46022c-dc35-4b1c-a5f3-48aafba85baa, !- WinterDesignDay Schedule:Day Name
  1f46022c-dc35-4b1c-a5f3-48aafba85baa, !- CustomDay1 Schedule:Day Name
  1f46022c-dc35-4b1c-a5f3-48aafba85baa; !- CustomDay2 Schedule:Day Name

Schedule:Week:Daily, NECB-D-Thermostat Setpoint-Heating_48,
  1f46022c-dc35-4b1c-a5f3-48aafba85baa, !- Sunday Schedule:Day Name
  4879fb07-a0f9-4e92-8872-17b1081e4b79, !- Monday Schedule:Day Name
  4879fb07-a0f9-4e92-8872-17b1081e4b79, !- Tuesday Schedule:Day Name
  4879fb07-a0f9-4e92-8872-17b1081e4b79, !- Wednesday Schedule:Day Name
  4879fb07-a0f9-4e92-8872-17b1081e4b79, !- Thursday Schedule:Day Name
  4879fb07-a0f9-4e92-8872-17b1081e4b79, !- Friday Schedule:Day Name
  1f46022c-dc35-4b1c-a5f3-48aafba85baa, !- Saturday Schedule:Day Name
  1f46022c-dc35-4b1c-a5f3-48aafba85baa, !- Holiday Schedule:Day Name
  1f46022c-dc35-4b1c-a5f3-48aafba85baa, !- SummerDesignDay Schedule:Day Name
  1f46022c-dc35-4b1c-a5f3-48aafba85baa, !- WinterDesignDay Schedule:Day Name
  1f46022c-dc35-4b1c-a5f3-48aafba85baa, !- CustomDay1 Schedule:Day Name
  1f46022c-dc35-4b1c-a5f3-48aafba85baa; !- CustomDay2 Schedule:Day Name

Schedule:Week:Daily, NECB-D-Thermostat Setpoint-Heating_49,
  1f46022c-dc35-4b1c-a5f3-48aafba85baa, !- Sunday Schedule:Day Name
  4879fb07-a0f9-4e92-8872-17b1081e4b79, !- Monday Schedule:Day Name
  4879fb07-a0f9-4e92-8872-17b1081e4b79, !- Tuesday Schedule:Day Name
  4879fb07-a0f9-4e92-8872-17b1081e4b79, !- Wednesday Schedule:Day Name
  4879fb07-a0f9-4e92-8872-17b1081e4b79, !- Thursday Schedule:Day Name
  4879fb07-a0f9-4e92-8872-17b1081e4b79, !- Friday Schedule:Day Name
  1f46022c-dc35-4b1c-a5f3-48aafba85baa, !- Saturday Schedule:Day Name
  1f46022c-dc35-4b1c-a5f3-48aafba85baa, !- Holiday Schedule:Day Name
  1f46022c-dc35-4b1c-a5f3-48aafba85baa, !- SummerDesignDay Schedule:Day Name
  1f46022c-dc35-4b1c-a5f3-48aafba85baa, !- WinterDesignDay Schedule:Day Name
  1f46022c-dc35-4b1c-a5f3-48aafba85baa, !- CustomDay1 Schedule:Day Name
  1f46022c-dc35-4b1c-a5f3-48aafba85baa; !- CustomDay2 Schedule:Day Name

Schedule:Week:Daily, NECB-D-Thermostat Setpoint-Heating_50,
  1f46022c-dc35-4b1c-a5f3-48aafba85baa, !- Sunday Schedule:Day Name
  4879fb07-a0f9-4e92-8872-17b1081e4b79, !- Monday Schedule:Day Name
  4879fb07-a0f9-4e92-8872-17b1081e4b79, !- Tuesday Schedule:Day Name
  4879fb07-a0f9-4e92-8872-17b1081e4b79, !- Wednesday Schedule:Day Name
  4879fb07-a0f9-4e92-8872-17b1081e4b79, !- Thursday Schedule:Day Name
  4879fb07-a0f9-4e92-8872-17b1081e4b79, !- Friday Schedule:Day Name
  1f46022c-dc35-4b1c-a5f3-48aafba85baa, !- Saturday Schedule:Day Name
  1f46022c-dc35-4b1c-a5f3-48aafba85baa, !- Holiday Schedule:Day Name
  1f46022c-dc35-4b1c-a5f3-48aafba85baa, !- SummerDesignDay Schedule:Day Name
  1f46022c-dc35-4b1c-a5f3-48aafba85baa, !- WinterDesignDay Schedule:Day Name
  1f46022c-dc35-4b1c-a5f3-48aafba85baa, !- CustomDay1 Schedule:Day Name
  1f46022c-dc35-4b1c-a5f3-48aafba85baa; !- CustomDay2 Schedule:Day Name

Schedule:Week:Daily, NECB-D-Thermostat Setpoint-Heating_51,
  1f46022c-dc35-4b1c-a5f3-48aafba85baa, !- Sunday Schedule:Day Name
  4879fb07-a0f9-4e92-8872-17b1081e4b79, !- Monday Schedule:Day Name
  4879fb07-a0f9-4e92-8872-17b1081e4b79, !- Tuesday Schedule:Day Name
  4879fb07-a0f9-4e92-8872-17b1081e4b79, !- Wednesday Schedule:Day Name
  4879fb07-a0f9-4e92-8872-17b1081e4b79, !- Thursday Schedule:Day Name
  4879fb07-a0f9-4e92-8872-17b1081e4b79, !- Friday Schedule:Day Name
  1f46022c-dc35-4b1c-a5f3-48aafba85baa, !- Saturday Schedule:Day Name
  1f46022c-dc35-4b1c-a5f3-48aafba85baa, !- Holiday Schedule:Day Name
  1f46022c-dc35-4b1c-a5f3-48aafba85baa, !- SummerDesignDay Schedule:Day Name
  1f46022c-dc35-4b1c-a5f3-48aafba85baa, !- WinterDesignDay Schedule:Day Name
  1f46022c-dc35-4b1c-a5f3-48aafba85baa, !- CustomDay1 Schedule:Day Name
  1f46022c-dc35-4b1c-a5f3-48aafba85baa; !- CustomDay2 Schedule:Day Name

Schedule:Week:Daily, NECB-D-Thermostat Setpoint-Heating_52,
  1f46022c-dc35-4b1c-a5f3-48aafba85baa, !- Sunday Schedule:Day Name
  1f46022c-dc35-4b1c-a5f3-48aafba85baa, !- Monday Schedule:Day Name
  1f46022c-dc35-4b1c-a5f3-48aafba85baa, !- Tuesday Schedule:Day Name
  1f46022c-dc35-4b1c-a5f3-48aafba85baa, !- Wednesday Schedule:Day Name
  1f46022c-dc35-4b1c-a5f3-48aafba85baa, !- Thursday Schedule:Day Name
  1f46022c-dc35-4b1c-a5f3-48aafba85baa, !- Friday Schedule:Day Name
  1f46022c-dc35-4b1c-a5f3-48aafba85baa, !- Saturday Schedule:Day Name
  1f46022c-dc35-4b1c-a5f3-48aafba85baa, !- Holiday Schedule:Day Name
  1f46022c-dc35-4b1c-a5f3-48aafba85baa, !- SummerDesignDay Schedule:Day Name
  1f46022c-dc35-4b1c-a5f3-48aafba85baa, !- WinterDesignDay Schedule:Day Name
  1f46022c-dc35-4b1c-a5f3-48aafba85baa, !- CustomDay1 Schedule:Day Name
  1f46022c-dc35-4b1c-a5f3-48aafba85baa; !- CustomDay2 Schedule:Day Name


Schedule:Year,NECB-D-Thermostat Setpoint-Cooling,
Temperature,
NECB-D-Thermostat Setpoint-Cooling_0,1,1,1,7, 
NECB-D-Thermostat Setpoint-Cooling_1,1,8,1,14, 
NECB-D-Thermostat Setpoint-Cooling_2,1,15,1,21, 
NECB-D-Thermostat Setpoint-Cooling_3,1,22,1,28, 
NECB-D-Thermostat Setpoint-Cooling_4,1,29,2,4, 
NECB-D-Thermostat Setpoint-Cooling_5,2,5,2,11, 
NECB-D-Thermostat Setpoint-Cooling_6,2,12,2,18, 
NECB-D-Thermostat Setpoint-Cooling_7,2,19,2,25, 
NECB-D-Thermostat Setpoint-Cooling_8,2,26,3,4, 
NECB-D-Thermostat Setpoint-Cooling_9,3,5,3,11, 
NECB-D-Thermostat Setpoint-Cooling_10,3,12,3,18, 
NECB-D-Thermostat Setpoint-Cooling_11,3,19,3,25, 
NECB-D-Thermostat Setpoint-Cooling_12,3,26,4,1, 
NECB-D-Thermostat Setpoint-Cooling_13,4,2,4,8, 
NECB-D-Thermostat Setpoint-Cooling_14,4,9,4,15, 
NECB-D-Thermostat Setpoint-Cooling_15,4,16,4,22, 
NECB-D-Thermostat Setpoint-Cooling_16,4,23,4,29, 
NECB-D-Thermostat Setpoint-Cooling_17,4,30,5,6, 
NECB-D-Thermostat Setpoint-Cooling_18,5,7,5,13, 
NECB-D-Thermostat Setpoint-Cooling_19,5,14,5,20, 
NECB-D-Thermostat Setpoint-Cooling_20,5,21,5,27, 
NECB-D-Thermostat Setpoint-Cooling_21,5,28,6,3, 
NECB-D-Thermostat Setpoint-Cooling_22,6,4,6,10, 
NECB-D-Thermostat Setpoint-Cooling_23,6,11,6,17, 
NECB-D-Thermostat Setpoint-Cooling_24,6,18,6,24, 
NECB-D-Thermostat Setpoint-Cooling_25,6,25,7,1, 
NECB-D-Thermostat Setpoint-Cooling_26,7,2,7,8, 
NECB-D-Thermostat Setpoint-Cooling_27,7,9,7,15, 
NECB-D-Thermostat Setpoint-Cooling_28,7,16,7,22, 
NECB-D-Thermostat Setpoint-Cooling_29,7,23,7,29, 
NECB-D-Thermostat Setpoint-Cooling_30,7,30,8,5, 
NECB-D-Thermostat Setpoint-Cooling_31,8,6,8,12, 
NECB-D-Thermostat Setpoint-Cooling_32,8,13,8,19, 
NECB-D-Thermostat Setpoint-Cooling_33,8,20,8,26, 
NECB-D-Thermostat Setpoint-Cooling_34,8,27,9,2, 
NECB-D-Thermostat Setpoint-Cooling_35,9,3,9,9, 
NECB-D-Thermostat Setpoint-Cooling_36,9,10,9,16, 
NECB-D-Thermostat Setpoint-Cooling_37,9,17,9,23, 
NECB-D-Thermostat Setpoint-Cooling_38,9,24,9,30, 
NECB-D-Thermostat Setpoint-Cooling_39,10,1,10,7, 
NECB-D-Thermostat Setpoint-Cooling_40,10,8,10,14, 
NECB-D-Thermostat Setpoint-Cooling_41,10,15,10,21, 
NECB-D-Thermostat Setpoint-Cooling_42,10,22,10,28, 
NECB-D-Thermostat Setpoint-Cooling_43,10,29,11,4, 
NECB-D-Thermostat Setpoint-Cooling_44,11,5,11,11, 
NECB-D-Thermostat Setpoint-Cooling_45,11,12,11,18, 
NECB-D-Thermostat Setpoint-Cooling_46,11,19,11,25, 
NECB-D-Thermostat Setpoint-Cooling_47,11,26,12,2, 
NECB-D-Thermostat Setpoint-Cooling_48,12,3,12,9, 
NECB-D-Thermostat Setpoint-Cooling_49,12,10,12,16, 
NECB-D-Thermostat Setpoint-Cooling_50,12,17,12,23, 
NECB-D-Thermostat Setpoint-Cooling_51,12,24,12,30, 
NECB-D-Thermostat Setpoint-Cooling_52,12,31,12,31;

Schedule:Week:Daily, NECB-D-Thermostat Setpoint-Cooling_0,
  33a40c0d-4940-46d6-9ed8-d980077da102, !- Sunday Schedule:Day Name
  bb316713-af84-4eec-b4fe-3cd8a2147c88, !- Monday Schedule:Day Name
  bb316713-af84-4eec-b4fe-3cd8a2147c88, !- Tuesday Schedule:Day Name
  bb316713-af84-4eec-b4fe-3cd8a2147c88, !- Wednesday Schedule:Day Name
  bb316713-af84-4eec-b4fe-3cd8a2147c88, !- Thursday Schedule:Day Name
  bb316713-af84-4eec-b4fe-3cd8a2147c88, !- Friday Schedule:Day Name
  33a40c0d-4940-46d6-9ed8-d980077da102, !- Saturday Schedule:Day Name
  33a40c0d-4940-46d6-9ed8-d980077da102, !- Holiday Schedule:Day Name
  33a40c0d-4940-46d6-9ed8-d980077da102, !- SummerDesignDay Schedule:Day Name
  33a40c0d-4940-46d6-9ed8-d980077da102, !- WinterDesignDay Schedule:Day Name
  33a40c0d-4940-46d6-9ed8-d980077da102, !- CustomDay1 Schedule:Day Name
  33a40c0d-4940-46d6-9ed8-d980077da102; !- CustomDay2 Schedule:Day Name

Schedule:Week:Daily, NECB-D-Thermostat Setpoint-Cooling_1,
  33a40c0d-4940-46d6-9ed8-d980077da102, !- Sunday Schedule:Day Name
  bb316713-af84-4eec-b4fe-3cd8a2147c88, !- Monday Schedule:Day Name
  bb316713-af84-4eec-b4fe-3cd8a2147c88, !- Tuesday Schedule:Day Name
  bb316713-af84-4eec-b4fe-3cd8a2147c88, !- Wednesday Schedule:Day Name
  bb316713-af84-4eec-b4fe-3cd8a2147c88, !- Thursday Schedule:Day Name
  bb316713-af84-4eec-b4fe-3cd8a2147c88, !- Friday Schedule:Day Name
  33a40c0d-4940-46d6-9ed8-d980077da102, !- Saturday Schedule:Day Name
  33a40c0d-4940-46d6-9ed8-d980077da102, !- Holiday Schedule:Day Name
  33a40c0d-4940-46d6-9ed8-d980077da102, !- SummerDesignDay Schedule:Day Name
  33a40c0d-4940-46d6-9ed8-d980077da102, !- WinterDesignDay Schedule:Day Name
  33a40c0d-4940-46d6-9ed8-d980077da102, !- CustomDay1 Schedule:Day Name
  33a40c0d-4940-46d6-9ed8-d980077da102; !- CustomDay2 Schedule:Day Name

Schedule:Week:Daily, NECB-D-Thermostat Setpoint-Cooling_2,
  33a40c0d-4940-46d6-9ed8-d980077da102, !- Sunday Schedule:Day Name
  bb316713-af84-4eec-b4fe-3cd8a2147c88, !- Monday Schedule:Day Name
  bb316713-af84-4eec-b4fe-3cd8a2147c88, !- Tuesday Schedule:Day Name
  bb316713-af84-4eec-b4fe-3cd8a2147c88, !- Wednesday Schedule:Day Name
  bb316713-af84-4eec-b4fe-3cd8a2147c88, !- Thursday Schedule:Day Name
  bb316713-af84-4eec-b4fe-3cd8a2147c88, !- Friday Schedule:Day Name
  33a40c0d-4940-46d6-9ed8-d980077da102, !- Saturday Schedule:Day Name
  33a40c0d-4940-46d6-9ed8-d980077da102, !- Holiday Schedule:Day Name
  33a40c0d-4940-46d6-9ed8-d980077da102, !- SummerDesignDay Schedule:Day Name
  33a40c0d-4940-46d6-9ed8-d980077da102, !- WinterDesignDay Schedule:Day Name
  33a40c0d-4940-46d6-9ed8-d980077da102, !- CustomDay1 Schedule:Day Name
  33a40c0d-4940-46d6-9ed8-d980077da102; !- CustomDay2 Schedule:Day Name

Schedule:Week:Daily, NECB-D-Thermostat Setpoint-Cooling_3,
  33a40c0d-4940-46d6-9ed8-d980077da102, !- Sunday Schedule:Day Name
  bb316713-af84-4eec-b4fe-3cd8a2147c88, !- Monday Schedule:Day Name
  bb316713-af84-4eec-b4fe-3cd8a2147c88, !- Tuesday Schedule:Day Name
  bb316713-af84-4eec-b4fe-3cd8a2147c88, !- Wednesday Schedule:Day Name
  bb316713-af84-4eec-b4fe-3cd8a2147c88, !- Thursday Schedule:Day Name
  bb316713-af84-4eec-b4fe-3cd8a2147c88, !- Friday Schedule:Day Name
  33a40c0d-4940-46d6-9ed8-d980077da102, !- Saturday Schedule:Day Name
  33a40c0d-4940-46d6-9ed8-d980077da102, !- Holiday Schedule:Day Name
  33a40c0d-4940-46d6-9ed8-d980077da102, !- SummerDesignDay Schedule:Day Name
  33a40c0d-4940-46d6-9ed8-d980077da102, !- WinterDesignDay Schedule:Day Name
  33a40c0d-4940-46d6-9ed8-d980077da102, !- CustomDay1 Schedule:Day Name
  33a40c0d-4940-46d6-9ed8-d980077da102; !- CustomDay2 Schedule:Day Name

Schedule:Week:Daily, NECB-D-Thermostat Setpoint-Cooling_4,
  33a40c0d-4940-46d6-9ed8-d980077da102, !- Sunday Schedule:Day Name
  bb316713-af84-4eec-b4fe-3cd8a2147c88, !- Monday Schedule:Day Name
  bb316713-af84-4eec-b4fe-3cd8a2147c88, !- Tuesday Schedule:Day Name
  bb316713-af84-4eec-b4fe-3cd8a2147c88, !- Wednesday Schedule:Day Name
  bb316713-af84-4eec-b4fe-3cd8a2147c88, !- Thursday Schedule:Day Name
  bb316713-af84-4eec-b4fe-3cd8a2147c88, !- Friday Schedule:Day Name
  33a40c0d-4940-46d6-9ed8-d980077da102, !- Saturday Schedule:Day Name
  33a40c0d-4940-46d6-9ed8-d980077da102, !- Holiday Schedule:Day Name
  33a40c0d-4940-46d6-9ed8-d980077da102, !- SummerDesignDay Schedule:Day Name
  33a40c0d-4940-46d6-9ed8-d980077da102, !- WinterDesignDay Schedule:Day Name
  33a40c0d-4940-46d6-9ed8-d980077da102, !- CustomDay1 Schedule:Day Name
  33a40c0d-4940-46d6-9ed8-d980077da102; !- CustomDay2 Schedule:Day Name

Schedule:Week:Daily, NECB-D-Thermostat Setpoint-Cooling_5,
  33a40c0d-4940-46d6-9ed8-d980077da102, !- Sunday Schedule:Day Name
  bb316713-af84-4eec-b4fe-3cd8a2147c88, !- Monday Schedule:Day Name
  bb316713-af84-4eec-b4fe-3cd8a2147c88, !- Tuesday Schedule:Day Name
  bb316713-af84-4eec-b4fe-3cd8a2147c88, !- Wednesday Schedule:Day Name
  bb316713-af84-4eec-b4fe-3cd8a2147c88, !- Thursday Schedule:Day Name
  bb316713-af84-4eec-b4fe-3cd8a2147c88, !- Friday Schedule:Day Name
  33a40c0d-4940-46d6-9ed8-d980077da102, !- Saturday Schedule:Day Name
  33a40c0d-4940-46d6-9ed8-d980077da102, !- Holiday Schedule:Day Name
  33a40c0d-4940-46d6-9ed8-d980077da102, !- SummerDesignDay Schedule:Day Name
  33a40c0d-4940-46d6-9ed8-d980077da102, !- WinterDesignDay Schedule:Day Name
  33a40c0d-4940-46d6-9ed8-d980077da102, !- CustomDay1 Schedule:Day Name
  33a40c0d-4940-46d6-9ed8-d980077da102; !- CustomDay2 Schedule:Day Name

Schedule:Week:Daily, NECB-D-Thermostat Setpoint-Cooling_6,
  33a40c0d-4940-46d6-9ed8-d980077da102, !- Sunday Schedule:Day Name
  bb316713-af84-4eec-b4fe-3cd8a2147c88, !- Monday Schedule:Day Name
  bb316713-af84-4eec-b4fe-3cd8a2147c88, !- Tuesday Schedule:Day Name
  bb316713-af84-4eec-b4fe-3cd8a2147c88, !- Wednesday Schedule:Day Name
  bb316713-af84-4eec-b4fe-3cd8a2147c88, !- Thursday Schedule:Day Name
  bb316713-af84-4eec-b4fe-3cd8a2147c88, !- Friday Schedule:Day Name
  33a40c0d-4940-46d6-9ed8-d980077da102, !- Saturday Schedule:Day Name
  33a40c0d-4940-46d6-9ed8-d980077da102, !- Holiday Schedule:Day Name
  33a40c0d-4940-46d6-9ed8-d980077da102, !- SummerDesignDay Schedule:Day Name
  33a40c0d-4940-46d6-9ed8-d980077da102, !- WinterDesignDay Schedule:Day Name
  33a40c0d-4940-46d6-9ed8-d980077da102, !- CustomDay1 Schedule:Day Name
  33a40c0d-4940-46d6-9ed8-d980077da102; !- CustomDay2 Schedule:Day Name

Schedule:Week:Daily, NECB-D-Thermostat Setpoint-Cooling_7,
  33a40c0d-4940-46d6-9ed8-d980077da102, !- Sunday Schedule:Day Name
  bb316713-af84-4eec-b4fe-3cd8a2147c88, !- Monday Schedule:Day Name
  bb316713-af84-4eec-b4fe-3cd8a2147c88, !- Tuesday Schedule:Day Name
  bb316713-af84-4eec-b4fe-3cd8a2147c88, !- Wednesday Schedule:Day Name
  bb316713-af84-4eec-b4fe-3cd8a2147c88, !- Thursday Schedule:Day Name
  bb316713-af84-4eec-b4fe-3cd8a2147c88, !- Friday Schedule:Day Name
  33a40c0d-4940-46d6-9ed8-d980077da102, !- Saturday Schedule:Day Name
  33a40c0d-4940-46d6-9ed8-d980077da102, !- Holiday Schedule:Day Name
  33a40c0d-4940-46d6-9ed8-d980077da102, !- SummerDesignDay Schedule:Day Name
  33a40c0d-4940-46d6-9ed8-d980077da102, !- WinterDesignDay Schedule:Day Name
  33a40c0d-4940-46d6-9ed8-d980077da102, !- CustomDay1 Schedule:Day Name
  33a40c0d-4940-46d6-9ed8-d980077da102; !- CustomDay2 Schedule:Day Name

Schedule:Week:Daily, NECB-D-Thermostat Setpoint-Cooling_8,
  33a40c0d-4940-46d6-9ed8-d980077da102, !- Sunday Schedule:Day Name
  bb316713-af84-4eec-b4fe-3cd8a2147c88, !- Monday Schedule:Day Name
  bb316713-af84-4eec-b4fe-3cd8a2147c88, !- Tuesday Schedule:Day Name
  bb316713-af84-4eec-b4fe-3cd8a2147c88, !- Wednesday Schedule:Day Name
  bb316713-af84-4eec-b4fe-3cd8a2147c88, !- Thursday Schedule:Day Name
  bb316713-af84-4eec-b4fe-3cd8a2147c88, !- Friday Schedule:Day Name
  33a40c0d-4940-46d6-9ed8-d980077da102, !- Saturday Schedule:Day Name
  33a40c0d-4940-46d6-9ed8-d980077da102, !- Holiday Schedule:Day Name
  33a40c0d-4940-46d6-9ed8-d980077da102, !- SummerDesignDay Schedule:Day Name
  33a40c0d-4940-46d6-9ed8-d980077da102, !- WinterDesignDay Schedule:Day Name
  33a40c0d-4940-46d6-9ed8-d980077da102, !- CustomDay1 Schedule:Day Name
  33a40c0d-4940-46d6-9ed8-d980077da102; !- CustomDay2 Schedule:Day Name

Schedule:Week:Daily, NECB-D-Thermostat Setpoint-Cooling_9,
  33a40c0d-4940-46d6-9ed8-d980077da102, !- Sunday Schedule:Day Name
  bb316713-af84-4eec-b4fe-3cd8a2147c88, !- Monday Schedule:Day Name
  bb316713-af84-4eec-b4fe-3cd8a2147c88, !- Tuesday Schedule:Day Name
  bb316713-af84-4eec-b4fe-3cd8a2147c88, !- Wednesday Schedule:Day Name
  bb316713-af84-4eec-b4fe-3cd8a2147c88, !- Thursday Schedule:Day Name
  bb316713-af84-4eec-b4fe-3cd8a2147c88, !- Friday Schedule:Day Name
  33a40c0d-4940-46d6-9ed8-d980077da102, !- Saturday Schedule:Day Name
  33a40c0d-4940-46d6-9ed8-d980077da102, !- Holiday Schedule:Day Name
  33a40c0d-4940-46d6-9ed8-d980077da102, !- SummerDesignDay Schedule:Day Name
  33a40c0d-4940-46d6-9ed8-d980077da102, !- WinterDesignDay Schedule:Day Name
  33a40c0d-4940-46d6-9ed8-d980077da102, !- CustomDay1 Schedule:Day Name
  33a40c0d-4940-46d6-9ed8-d980077da102; !- CustomDay2 Schedule:Day Name

Schedule:Week:Daily, NECB-D-Thermostat Setpoint-Cooling_10,
  33a40c0d-4940-46d6-9ed8-d980077da102, !- Sunday Schedule:Day Name
  bb316713-af84-4eec-b4fe-3cd8a2147c88, !- Monday Schedule:Day Name
  bb316713-af84-4eec-b4fe-3cd8a2147c88, !- Tuesday Schedule:Day Name
  bb316713-af84-4eec-b4fe-3cd8a2147c88, !- Wednesday Schedule:Day Name
  bb316713-af84-4eec-b4fe-3cd8a2147c88, !- Thursday Schedule:Day Name
  bb316713-af84-4eec-b4fe-3cd8a2147c88, !- Friday Schedule:Day Name
  33a40c0d-4940-46d6-9ed8-d980077da102, !- Saturday Schedule:Day Name
  33a40c0d-4940-46d6-9ed8-d980077da102, !- Holiday Schedule:Day Name
  33a40c0d-4940-46d6-9ed8-d980077da102, !- SummerDesignDay Schedule:Day Name
  33a40c0d-4940-46d6-9ed8-d980077da102, !- WinterDesignDay Schedule:Day Name
  33a40c0d-4940-46d6-9ed8-d980077da102, !- CustomDay1 Schedule:Day Name
  33a40c0d-4940-46d6-9ed8-d980077da102; !- CustomDay2 Schedule:Day Name

Schedule:Week:Daily, NECB-D-Thermostat Setpoint-Cooling_11,
  33a40c0d-4940-46d6-9ed8-d980077da102, !- Sunday Schedule:Day Name
  bb316713-af84-4eec-b4fe-3cd8a2147c88, !- Monday Schedule:Day Name
  bb316713-af84-4eec-b4fe-3cd8a2147c88, !- Tuesday Schedule:Day Name
  bb316713-af84-4eec-b4fe-3cd8a2147c88, !- Wednesday Schedule:Day Name
  bb316713-af84-4eec-b4fe-3cd8a2147c88, !- Thursday Schedule:Day Name
  bb316713-af84-4eec-b4fe-3cd8a2147c88, !- Friday Schedule:Day Name
  33a40c0d-4940-46d6-9ed8-d980077da102, !- Saturday Schedule:Day Name
  33a40c0d-4940-46d6-9ed8-d980077da102, !- Holiday Schedule:Day Name
  33a40c0d-4940-46d6-9ed8-d980077da102, !- SummerDesignDay Schedule:Day Name
  33a40c0d-4940-46d6-9ed8-d980077da102, !- WinterDesignDay Schedule:Day Name
  33a40c0d-4940-46d6-9ed8-d980077da102, !- CustomDay1 Schedule:Day Name
  33a40c0d-4940-46d6-9ed8-d980077da102; !- CustomDay2 Schedule:Day Name

Schedule:Week:Daily, NECB-D-Thermostat Setpoint-Cooling_12,
  33a40c0d-4940-46d6-9ed8-d980077da102, !- Sunday Schedule:Day Name
  bb316713-af84-4eec-b4fe-3cd8a2147c88, !- Monday Schedule:Day Name
  bb316713-af84-4eec-b4fe-3cd8a2147c88, !- Tuesday Schedule:Day Name
  bb316713-af84-4eec-b4fe-3cd8a2147c88, !- Wednesday Schedule:Day Name
  bb316713-af84-4eec-b4fe-3cd8a2147c88, !- Thursday Schedule:Day Name
  bb316713-af84-4eec-b4fe-3cd8a2147c88, !- Friday Schedule:Day Name
  33a40c0d-4940-46d6-9ed8-d980077da102, !- Saturday Schedule:Day Name
  33a40c0d-4940-46d6-9ed8-d980077da102, !- Holiday Schedule:Day Name
  33a40c0d-4940-46d6-9ed8-d980077da102, !- SummerDesignDay Schedule:Day Name
  33a40c0d-4940-46d6-9ed8-d980077da102, !- WinterDesignDay Schedule:Day Name
  33a40c0d-4940-46d6-9ed8-d980077da102, !- CustomDay1 Schedule:Day Name
  33a40c0d-4940-46d6-9ed8-d980077da102; !- CustomDay2 Schedule:Day Name

Schedule:Week:Daily, NECB-D-Thermostat Setpoint-Cooling_13,
  33a40c0d-4940-46d6-9ed8-d980077da102, !- Sunday Schedule:Day Name
  bb316713-af84-4eec-b4fe-3cd8a2147c88, !- Monday Schedule:Day Name
  bb316713-af84-4eec-b4fe-3cd8a2147c88, !- Tuesday Schedule:Day Name
  bb316713-af84-4eec-b4fe-3cd8a2147c88, !- Wednesday Schedule:Day Name
  bb316713-af84-4eec-b4fe-3cd8a2147c88, !- Thursday Schedule:Day Name
  bb316713-af84-4eec-b4fe-3cd8a2147c88, !- Friday Schedule:Day Name
  33a40c0d-4940-46d6-9ed8-d980077da102, !- Saturday Schedule:Day Name
  33a40c0d-4940-46d6-9ed8-d980077da102, !- Holiday Schedule:Day Name
  33a40c0d-4940-46d6-9ed8-d980077da102, !- SummerDesignDay Schedule:Day Name
  33a40c0d-4940-46d6-9ed8-d980077da102, !- WinterDesignDay Schedule:Day Name
  33a40c0d-4940-46d6-9ed8-d980077da102, !- CustomDay1 Schedule:Day Name
  33a40c0d-4940-46d6-9ed8-d980077da102; !- CustomDay2 Schedule:Day Name

Schedule:Week:Daily, NECB-D-Thermostat Setpoint-Cooling_14,
  33a40c0d-4940-46d6-9ed8-d980077da102, !- Sunday Schedule:Day Name
  bb316713-af84-4eec-b4fe-3cd8a2147c88, !- Monday Schedule:Day Name
  bb316713-af84-4eec-b4fe-3cd8a2147c88, !- Tuesday Schedule:Day Name
  bb316713-af84-4eec-b4fe-3cd8a2147c88, !- Wednesday Schedule:Day Name
  bb316713-af84-4eec-b4fe-3cd8a2147c88, !- Thursday Schedule:Day Name
  bb316713-af84-4eec-b4fe-3cd8a2147c88, !- Friday Schedule:Day Name
  33a40c0d-4940-46d6-9ed8-d980077da102, !- Saturday Schedule:Day Name
  33a40c0d-4940-46d6-9ed8-d980077da102, !- Holiday Schedule:Day Name
  33a40c0d-4940-46d6-9ed8-d980077da102, !- SummerDesignDay Schedule:Day Name
  33a40c0d-4940-46d6-9ed8-d980077da102, !- WinterDesignDay Schedule:Day Name
  33a40c0d-4940-46d6-9ed8-d980077da102, !- CustomDay1 Schedule:Day Name
  33a40c0d-4940-46d6-9ed8-d980077da102; !- CustomDay2 Schedule:Day Name

Schedule:Week:Daily, NECB-D-Thermostat Setpoint-Cooling_15,
  33a40c0d-4940-46d6-9ed8-d980077da102, !- Sunday Schedule:Day Name
  bb316713-af84-4eec-b4fe-3cd8a2147c88, !- Monday Schedule:Day Name
  bb316713-af84-4eec-b4fe-3cd8a2147c88, !- Tuesday Schedule:Day Name
  bb316713-af84-4eec-b4fe-3cd8a2147c88, !- Wednesday Schedule:Day Name
  bb316713-af84-4eec-b4fe-3cd8a2147c88, !- Thursday Schedule:Day Name
  bb316713-af84-4eec-b4fe-3cd8a2147c88, !- Friday Schedule:Day Name
  33a40c0d-4940-46d6-9ed8-d980077da102, !- Saturday Schedule:Day Name
  33a40c0d-4940-46d6-9ed8-d980077da102, !- Holiday Schedule:Day Name
  33a40c0d-4940-46d6-9ed8-d980077da102, !- SummerDesignDay Schedule:Day Name
  33a40c0d-4940-46d6-9ed8-d980077da102, !- WinterDesignDay Schedule:Day Name
  33a40c0d-4940-46d6-9ed8-d980077da102, !- CustomDay1 Schedule:Day Name
  33a40c0d-4940-46d6-9ed8-d980077da102; !- CustomDay2 Schedule:Day Name

Schedule:Week:Daily, NECB-D-Thermostat Setpoint-Cooling_16,
  33a40c0d-4940-46d6-9ed8-d980077da102, !- Sunday Schedule:Day Name
  bb316713-af84-4eec-b4fe-3cd8a2147c88, !- Monday Schedule:Day Name
  bb316713-af84-4eec-b4fe-3cd8a2147c88, !- Tuesday Schedule:Day Name
  bb316713-af84-4eec-b4fe-3cd8a2147c88, !- Wednesday Schedule:Day Name
  bb316713-af84-4eec-b4fe-3cd8a2147c88, !- Thursday Schedule:Day Name
  bb316713-af84-4eec-b4fe-3cd8a2147c88, !- Friday Schedule:Day Name
  33a40c0d-4940-46d6-9ed8-d980077da102, !- Saturday Schedule:Day Name
  33a40c0d-4940-46d6-9ed8-d980077da102, !- Holiday Schedule:Day Name
  33a40c0d-4940-46d6-9ed8-d980077da102, !- SummerDesignDay Schedule:Day Name
  33a40c0d-4940-46d6-9ed8-d980077da102, !- WinterDesignDay Schedule:Day Name
  33a40c0d-4940-46d6-9ed8-d980077da102, !- CustomDay1 Schedule:Day Name
  33a40c0d-4940-46d6-9ed8-d980077da102; !- CustomDay2 Schedule:Day Name

Schedule:Week:Daily, NECB-D-Thermostat Setpoint-Cooling_17,
  33a40c0d-4940-46d6-9ed8-d980077da102, !- Sunday Schedule:Day Name
  bb316713-af84-4eec-b4fe-3cd8a2147c88, !- Monday Schedule:Day Name
  bb316713-af84-4eec-b4fe-3cd8a2147c88, !- Tuesday Schedule:Day Name
  bb316713-af84-4eec-b4fe-3cd8a2147c88, !- Wednesday Schedule:Day Name
  bb316713-af84-4eec-b4fe-3cd8a2147c88, !- Thursday Schedule:Day Name
  bb316713-af84-4eec-b4fe-3cd8a2147c88, !- Friday Schedule:Day Name
  33a40c0d-4940-46d6-9ed8-d980077da102, !- Saturday Schedule:Day Name
  33a40c0d-4940-46d6-9ed8-d980077da102, !- Holiday Schedule:Day Name
  33a40c0d-4940-46d6-9ed8-d980077da102, !- SummerDesignDay Schedule:Day Name
  33a40c0d-4940-46d6-9ed8-d980077da102, !- WinterDesignDay Schedule:Day Name
  33a40c0d-4940-46d6-9ed8-d980077da102, !- CustomDay1 Schedule:Day Name
  33a40c0d-4940-46d6-9ed8-d980077da102; !- CustomDay2 Schedule:Day Name

Schedule:Week:Daily, NECB-D-Thermostat Setpoint-Cooling_18,
  33a40c0d-4940-46d6-9ed8-d980077da102, !- Sunday Schedule:Day Name
  bb316713-af84-4eec-b4fe-3cd8a2147c88, !- Monday Schedule:Day Name
  bb316713-af84-4eec-b4fe-3cd8a2147c88, !- Tuesday Schedule:Day Name
  bb316713-af84-4eec-b4fe-3cd8a2147c88, !- Wednesday Schedule:Day Name
  bb316713-af84-4eec-b4fe-3cd8a2147c88, !- Thursday Schedule:Day Name
  bb316713-af84-4eec-b4fe-3cd8a2147c88, !- Friday Schedule:Day Name
  33a40c0d-4940-46d6-9ed8-d980077da102, !- Saturday Schedule:Day Name
  33a40c0d-4940-46d6-9ed8-d980077da102, !- Holiday Schedule:Day Name
  33a40c0d-4940-46d6-9ed8-d980077da102, !- SummerDesignDay Schedule:Day Name
  33a40c0d-4940-46d6-9ed8-d980077da102, !- WinterDesignDay Schedule:Day Name
  33a40c0d-4940-46d6-9ed8-d980077da102, !- CustomDay1 Schedule:Day Name
  33a40c0d-4940-46d6-9ed8-d980077da102; !- CustomDay2 Schedule:Day Name

Schedule:Week:Daily, NECB-D-Thermostat Setpoint-Cooling_19,
  33a40c0d-4940-46d6-9ed8-d980077da102, !- Sunday Schedule:Day Name
  bb316713-af84-4eec-b4fe-3cd8a2147c88, !- Monday Schedule:Day Name
  bb316713-af84-4eec-b4fe-3cd8a2147c88, !- Tuesday Schedule:Day Name
  bb316713-af84-4eec-b4fe-3cd8a2147c88, !- Wednesday Schedule:Day Name
  bb316713-af84-4eec-b4fe-3cd8a2147c88, !- Thursday Schedule:Day Name
  bb316713-af84-4eec-b4fe-3cd8a2147c88, !- Friday Schedule:Day Name
  33a40c0d-4940-46d6-9ed8-d980077da102, !- Saturday Schedule:Day Name
  33a40c0d-4940-46d6-9ed8-d980077da102, !- Holiday Schedule:Day Name
  33a40c0d-4940-46d6-9ed8-d980077da102, !- SummerDesignDay Schedule:Day Name
  33a40c0d-4940-46d6-9ed8-d980077da102, !- WinterDesignDay Schedule:Day Name
  33a40c0d-4940-46d6-9ed8-d980077da102, !- CustomDay1 Schedule:Day Name
  33a40c0d-4940-46d6-9ed8-d980077da102; !- CustomDay2 Schedule:Day Name

Schedule:Week:Daily, NECB-D-Thermostat Setpoint-Cooling_20,
  33a40c0d-4940-46d6-9ed8-d980077da102, !- Sunday Schedule:Day Name
  bb316713-af84-4eec-b4fe-3cd8a2147c88, !- Monday Schedule:Day Name
  bb316713-af84-4eec-b4fe-3cd8a2147c88, !- Tuesday Schedule:Day Name
  bb316713-af84-4eec-b4fe-3cd8a2147c88, !- Wednesday Schedule:Day Name
  bb316713-af84-4eec-b4fe-3cd8a2147c88, !- Thursday Schedule:Day Name
  bb316713-af84-4eec-b4fe-3cd8a2147c88, !- Friday Schedule:Day Name
  33a40c0d-4940-46d6-9ed8-d980077da102, !- Saturday Schedule:Day Name
  33a40c0d-4940-46d6-9ed8-d980077da102, !- Holiday Schedule:Day Name
  33a40c0d-4940-46d6-9ed8-d980077da102, !- SummerDesignDay Schedule:Day Name
  33a40c0d-4940-46d6-9ed8-d980077da102, !- WinterDesignDay Schedule:Day Name
  33a40c0d-4940-46d6-9ed8-d980077da102, !- CustomDay1 Schedule:Day Name
  33a40c0d-4940-46d6-9ed8-d980077da102; !- CustomDay2 Schedule:Day Name

Schedule:Week:Daily, NECB-D-Thermostat Setpoint-Cooling_21,
  33a40c0d-4940-46d6-9ed8-d980077da102, !- Sunday Schedule:Day Name
  bb316713-af84-4eec-b4fe-3cd8a2147c88, !- Monday Schedule:Day Name
  bb316713-af84-4eec-b4fe-3cd8a2147c88, !- Tuesday Schedule:Day Name
  bb316713-af84-4eec-b4fe-3cd8a2147c88, !- Wednesday Schedule:Day Name
  bb316713-af84-4eec-b4fe-3cd8a2147c88, !- Thursday Schedule:Day Name
  bb316713-af84-4eec-b4fe-3cd8a2147c88, !- Friday Schedule:Day Name
  33a40c0d-4940-46d6-9ed8-d980077da102, !- Saturday Schedule:Day Name
  33a40c0d-4940-46d6-9ed8-d980077da102, !- Holiday Schedule:Day Name
  33a40c0d-4940-46d6-9ed8-d980077da102, !- SummerDesignDay Schedule:Day Name
  33a40c0d-4940-46d6-9ed8-d980077da102, !- WinterDesignDay Schedule:Day Name
  33a40c0d-4940-46d6-9ed8-d980077da102, !- CustomDay1 Schedule:Day Name
  33a40c0d-4940-46d6-9ed8-d980077da102; !- CustomDay2 Schedule:Day Name

Schedule:Week:Daily, NECB-D-Thermostat Setpoint-Cooling_22,
  33a40c0d-4940-46d6-9ed8-d980077da102, !- Sunday Schedule:Day Name
  bb316713-af84-4eec-b4fe-3cd8a2147c88, !- Monday Schedule:Day Name
  bb316713-af84-4eec-b4fe-3cd8a2147c88, !- Tuesday Schedule:Day Name
  bb316713-af84-4eec-b4fe-3cd8a2147c88, !- Wednesday Schedule:Day Name
  bb316713-af84-4eec-b4fe-3cd8a2147c88, !- Thursday Schedule:Day Name
  bb316713-af84-4eec-b4fe-3cd8a2147c88, !- Friday Schedule:Day Name
  33a40c0d-4940-46d6-9ed8-d980077da102, !- Saturday Schedule:Day Name
  33a40c0d-4940-46d6-9ed8-d980077da102, !- Holiday Schedule:Day Name
  33a40c0d-4940-46d6-9ed8-d980077da102, !- SummerDesignDay Schedule:Day Name
  33a40c0d-4940-46d6-9ed8-d980077da102, !- WinterDesignDay Schedule:Day Name
  33a40c0d-4940-46d6-9ed8-d980077da102, !- CustomDay1 Schedule:Day Name
  33a40c0d-4940-46d6-9ed8-d980077da102; !- CustomDay2 Schedule:Day Name

Schedule:Week:Daily, NECB-D-Thermostat Setpoint-Cooling_23,
  33a40c0d-4940-46d6-9ed8-d980077da102, !- Sunday Schedule:Day Name
  bb316713-af84-4eec-b4fe-3cd8a2147c88, !- Monday Schedule:Day Name
  bb316713-af84-4eec-b4fe-3cd8a2147c88, !- Tuesday Schedule:Day Name
  bb316713-af84-4eec-b4fe-3cd8a2147c88, !- Wednesday Schedule:Day Name
  bb316713-af84-4eec-b4fe-3cd8a2147c88, !- Thursday Schedule:Day Name
  bb316713-af84-4eec-b4fe-3cd8a2147c88, !- Friday Schedule:Day Name
  33a40c0d-4940-46d6-9ed8-d980077da102, !- Saturday Schedule:Day Name
  33a40c0d-4940-46d6-9ed8-d980077da102, !- Holiday Schedule:Day Name
  33a40c0d-4940-46d6-9ed8-d980077da102, !- SummerDesignDay Schedule:Day Name
  33a40c0d-4940-46d6-9ed8-d980077da102, !- WinterDesignDay Schedule:Day Name
  33a40c0d-4940-46d6-9ed8-d980077da102, !- CustomDay1 Schedule:Day Name
  33a40c0d-4940-46d6-9ed8-d980077da102; !- CustomDay2 Schedule:Day Name

Schedule:Week:Daily, NECB-D-Thermostat Setpoint-Cooling_24,
  33a40c0d-4940-46d6-9ed8-d980077da102, !- Sunday Schedule:Day Name
  bb316713-af84-4eec-b4fe-3cd8a2147c88, !- Monday Schedule:Day Name
  bb316713-af84-4eec-b4fe-3cd8a2147c88, !- Tuesday Schedule:Day Name
  bb316713-af84-4eec-b4fe-3cd8a2147c88, !- Wednesday Schedule:Day Name
  bb316713-af84-4eec-b4fe-3cd8a2147c88, !- Thursday Schedule:Day Name
  bb316713-af84-4eec-b4fe-3cd8a2147c88, !- Friday Schedule:Day Name
  33a40c0d-4940-46d6-9ed8-d980077da102, !- Saturday Schedule:Day Name
  33a40c0d-4940-46d6-9ed8-d980077da102, !- Holiday Schedule:Day Name
  33a40c0d-4940-46d6-9ed8-d980077da102, !- SummerDesignDay Schedule:Day Name
  33a40c0d-4940-46d6-9ed8-d980077da102, !- WinterDesignDay Schedule:Day Name
  33a40c0d-4940-46d6-9ed8-d980077da102, !- CustomDay1 Schedule:Day Name
  33a40c0d-4940-46d6-9ed8-d980077da102; !- CustomDay2 Schedule:Day Name

Schedule:Week:Daily, NECB-D-Thermostat Setpoint-Cooling_25,
  33a40c0d-4940-46d6-9ed8-d980077da102, !- Sunday Schedule:Day Name
  bb316713-af84-4eec-b4fe-3cd8a2147c88, !- Monday Schedule:Day Name
  bb316713-af84-4eec-b4fe-3cd8a2147c88, !- Tuesday Schedule:Day Name
  bb316713-af84-4eec-b4fe-3cd8a2147c88, !- Wednesday Schedule:Day Name
  bb316713-af84-4eec-b4fe-3cd8a2147c88, !- Thursday Schedule:Day Name
  bb316713-af84-4eec-b4fe-3cd8a2147c88, !- Friday Schedule:Day Name
  33a40c0d-4940-46d6-9ed8-d980077da102, !- Saturday Schedule:Day Name
  33a40c0d-4940-46d6-9ed8-d980077da102, !- Holiday Schedule:Day Name
  33a40c0d-4940-46d6-9ed8-d980077da102, !- SummerDesignDay Schedule:Day Name
  33a40c0d-4940-46d6-9ed8-d980077da102, !- WinterDesignDay Schedule:Day Name
  33a40c0d-4940-46d6-9ed8-d980077da102, !- CustomDay1 Schedule:Day Name
  33a40c0d-4940-46d6-9ed8-d980077da102; !- CustomDay2 Schedule:Day Name

Schedule:Week:Daily, NECB-D-Thermostat Setpoint-Cooling_26,
  33a40c0d-4940-46d6-9ed8-d980077da102, !- Sunday Schedule:Day Name
  bb316713-af84-4eec-b4fe-3cd8a2147c88, !- Monday Schedule:Day Name
  bb316713-af84-4eec-b4fe-3cd8a2147c88, !- Tuesday Schedule:Day Name
  bb316713-af84-4eec-b4fe-3cd8a2147c88, !- Wednesday Schedule:Day Name
  bb316713-af84-4eec-b4fe-3cd8a2147c88, !- Thursday Schedule:Day Name
  bb316713-af84-4eec-b4fe-3cd8a2147c88, !- Friday Schedule:Day Name
  33a40c0d-4940-46d6-9ed8-d980077da102, !- Saturday Schedule:Day Name
  33a40c0d-4940-46d6-9ed8-d980077da102, !- Holiday Schedule:Day Name
  33a40c0d-4940-46d6-9ed8-d980077da102, !- SummerDesignDay Schedule:Day Name
  33a40c0d-4940-46d6-9ed8-d980077da102, !- WinterDesignDay Schedule:Day Name
  33a40c0d-4940-46d6-9ed8-d980077da102, !- CustomDay1 Schedule:Day Name
  33a40c0d-4940-46d6-9ed8-d980077da102; !- CustomDay2 Schedule:Day Name

Schedule:Week:Daily, NECB-D-Thermostat Setpoint-Cooling_27,
  33a40c0d-4940-46d6-9ed8-d980077da102, !- Sunday Schedule:Day Name
  bb316713-af84-4eec-b4fe-3cd8a2147c88, !- Monday Schedule:Day Name
  bb316713-af84-4eec-b4fe-3cd8a2147c88, !- Tuesday Schedule:Day Name
  bb316713-af84-4eec-b4fe-3cd8a2147c88, !- Wednesday Schedule:Day Name
  bb316713-af84-4eec-b4fe-3cd8a2147c88, !- Thursday Schedule:Day Name
  bb316713-af84-4eec-b4fe-3cd8a2147c88, !- Friday Schedule:Day Name
  33a40c0d-4940-46d6-9ed8-d980077da102, !- Saturday Schedule:Day Name
  33a40c0d-4940-46d6-9ed8-d980077da102, !- Holiday Schedule:Day Name
  33a40c0d-4940-46d6-9ed8-d980077da102, !- SummerDesignDay Schedule:Day Name
  33a40c0d-4940-46d6-9ed8-d980077da102, !- WinterDesignDay Schedule:Day Name
  33a40c0d-4940-46d6-9ed8-d980077da102, !- CustomDay1 Schedule:Day Name
  33a40c0d-4940-46d6-9ed8-d980077da102; !- CustomDay2 Schedule:Day Name

Schedule:Week:Daily, NECB-D-Thermostat Setpoint-Cooling_28,
  33a40c0d-4940-46d6-9ed8-d980077da102, !- Sunday Schedule:Day Name
  bb316713-af84-4eec-b4fe-3cd8a2147c88, !- Monday Schedule:Day Name
  bb316713-af84-4eec-b4fe-3cd8a2147c88, !- Tuesday Schedule:Day Name
  bb316713-af84-4eec-b4fe-3cd8a2147c88, !- Wednesday Schedule:Day Name
  bb316713-af84-4eec-b4fe-3cd8a2147c88, !- Thursday Schedule:Day Name
  bb316713-af84-4eec-b4fe-3cd8a2147c88, !- Friday Schedule:Day Name
  33a40c0d-4940-46d6-9ed8-d980077da102, !- Saturday Schedule:Day Name
  33a40c0d-4940-46d6-9ed8-d980077da102, !- Holiday Schedule:Day Name
  33a40c0d-4940-46d6-9ed8-d980077da102, !- SummerDesignDay Schedule:Day Name
  33a40c0d-4940-46d6-9ed8-d980077da102, !- WinterDesignDay Schedule:Day Name
  33a40c0d-4940-46d6-9ed8-d980077da102, !- CustomDay1 Schedule:Day Name
  33a40c0d-4940-46d6-9ed8-d980077da102; !- CustomDay2 Schedule:Day Name

Schedule:Week:Daily, NECB-D-Thermostat Setpoint-Cooling_29,
  33a40c0d-4940-46d6-9ed8-d980077da102, !- Sunday Schedule:Day Name
  bb316713-af84-4eec-b4fe-3cd8a2147c88, !- Monday Schedule:Day Name
  bb316713-af84-4eec-b4fe-3cd8a2147c88, !- Tuesday Schedule:Day Name
  bb316713-af84-4eec-b4fe-3cd8a2147c88, !- Wednesday Schedule:Day Name
  bb316713-af84-4eec-b4fe-3cd8a2147c88, !- Thursday Schedule:Day Name
  bb316713-af84-4eec-b4fe-3cd8a2147c88, !- Friday Schedule:Day Name
  33a40c0d-4940-46d6-9ed8-d980077da102, !- Saturday Schedule:Day Name
  33a40c0d-4940-46d6-9ed8-d980077da102, !- Holiday Schedule:Day Name
  33a40c0d-4940-46d6-9ed8-d980077da102, !- SummerDesignDay Schedule:Day Name
  33a40c0d-4940-46d6-9ed8-d980077da102, !- WinterDesignDay Schedule:Day Name
  33a40c0d-4940-46d6-9ed8-d980077da102, !- CustomDay1 Schedule:Day Name
  33a40c0d-4940-46d6-9ed8-d980077da102; !- CustomDay2 Schedule:Day Name

Schedule:Week:Daily, NECB-D-Thermostat Setpoint-Cooling_30,
  33a40c0d-4940-46d6-9ed8-d980077da102, !- Sunday Schedule:Day Name
  bb316713-af84-4eec-b4fe-3cd8a2147c88, !- Monday Schedule:Day Name
  bb316713-af84-4eec-b4fe-3cd8a2147c88, !- Tuesday Schedule:Day Name
  bb316713-af84-4eec-b4fe-3cd8a2147c88, !- Wednesday Schedule:Day Name
  bb316713-af84-4eec-b4fe-3cd8a2147c88, !- Thursday Schedule:Day Name
  bb316713-af84-4eec-b4fe-3cd8a2147c88, !- Friday Schedule:Day Name
  33a40c0d-4940-46d6-9ed8-d980077da102, !- Saturday Schedule:Day Name
  33a40c0d-4940-46d6-9ed8-d980077da102, !- Holiday Schedule:Day Name
  33a40c0d-4940-46d6-9ed8-d980077da102, !- SummerDesignDay Schedule:Day Name
  33a40c0d-4940-46d6-9ed8-d980077da102, !- WinterDesignDay Schedule:Day Name
  33a40c0d-4940-46d6-9ed8-d980077da102, !- CustomDay1 Schedule:Day Name
  33a40c0d-4940-46d6-9ed8-d980077da102; !- CustomDay2 Schedule:Day Name

Schedule:Week:Daily, NECB-D-Thermostat Setpoint-Cooling_31,
  33a40c0d-4940-46d6-9ed8-d980077da102, !- Sunday Schedule:Day Name
  bb316713-af84-4eec-b4fe-3cd8a2147c88, !- Monday Schedule:Day Name
  bb316713-af84-4eec-b4fe-3cd8a2147c88, !- Tuesday Schedule:Day Name
  bb316713-af84-4eec-b4fe-3cd8a2147c88, !- Wednesday Schedule:Day Name
  bb316713-af84-4eec-b4fe-3cd8a2147c88, !- Thursday Schedule:Day Name
  bb316713-af84-4eec-b4fe-3cd8a2147c88, !- Friday Schedule:Day Name
  33a40c0d-4940-46d6-9ed8-d980077da102, !- Saturday Schedule:Day Name
  33a40c0d-4940-46d6-9ed8-d980077da102, !- Holiday Schedule:Day Name
  33a40c0d-4940-46d6-9ed8-d980077da102, !- SummerDesignDay Schedule:Day Name
  33a40c0d-4940-46d6-9ed8-d980077da102, !- WinterDesignDay Schedule:Day Name
  33a40c0d-4940-46d6-9ed8-d980077da102, !- CustomDay1 Schedule:Day Name
  33a40c0d-4940-46d6-9ed8-d980077da102; !- CustomDay2 Schedule:Day Name

Schedule:Week:Daily, NECB-D-Thermostat Setpoint-Cooling_32,
  33a40c0d-4940-46d6-9ed8-d980077da102, !- Sunday Schedule:Day Name
  bb316713-af84-4eec-b4fe-3cd8a2147c88, !- Monday Schedule:Day Name
  bb316713-af84-4eec-b4fe-3cd8a2147c88, !- Tuesday Schedule:Day Name
  bb316713-af84-4eec-b4fe-3cd8a2147c88, !- Wednesday Schedule:Day Name
  bb316713-af84-4eec-b4fe-3cd8a2147c88, !- Thursday Schedule:Day Name
  bb316713-af84-4eec-b4fe-3cd8a2147c88, !- Friday Schedule:Day Name
  33a40c0d-4940-46d6-9ed8-d980077da102, !- Saturday Schedule:Day Name
  33a40c0d-4940-46d6-9ed8-d980077da102, !- Holiday Schedule:Day Name
  33a40c0d-4940-46d6-9ed8-d980077da102, !- SummerDesignDay Schedule:Day Name
  33a40c0d-4940-46d6-9ed8-d980077da102, !- WinterDesignDay Schedule:Day Name
  33a40c0d-4940-46d6-9ed8-d980077da102, !- CustomDay1 Schedule:Day Name
  33a40c0d-4940-46d6-9ed8-d980077da102; !- CustomDay2 Schedule:Day Name

Schedule:Week:Daily, NECB-D-Thermostat Setpoint-Cooling_33,
  33a40c0d-4940-46d6-9ed8-d980077da102, !- Sunday Schedule:Day Name
  bb316713-af84-4eec-b4fe-3cd8a2147c88, !- Monday Schedule:Day Name
  bb316713-af84-4eec-b4fe-3cd8a2147c88, !- Tuesday Schedule:Day Name
  bb316713-af84-4eec-b4fe-3cd8a2147c88, !- Wednesday Schedule:Day Name
  bb316713-af84-4eec-b4fe-3cd8a2147c88, !- Thursday Schedule:Day Name
  bb316713-af84-4eec-b4fe-3cd8a2147c88, !- Friday Schedule:Day Name
  33a40c0d-4940-46d6-9ed8-d980077da102, !- Saturday Schedule:Day Name
  33a40c0d-4940-46d6-9ed8-d980077da102, !- Holiday Schedule:Day Name
  33a40c0d-4940-46d6-9ed8-d980077da102, !- SummerDesignDay Schedule:Day Name
  33a40c0d-4940-46d6-9ed8-d980077da102, !- WinterDesignDay Schedule:Day Name
  33a40c0d-4940-46d6-9ed8-d980077da102, !- CustomDay1 Schedule:Day Name
  33a40c0d-4940-46d6-9ed8-d980077da102; !- CustomDay2 Schedule:Day Name

Schedule:Week:Daily, NECB-D-Thermostat Setpoint-Cooling_34,
  33a40c0d-4940-46d6-9ed8-d980077da102, !- Sunday Schedule:Day Name
  bb316713-af84-4eec-b4fe-3cd8a2147c88, !- Monday Schedule:Day Name
  bb316713-af84-4eec-b4fe-3cd8a2147c88, !- Tuesday Schedule:Day Name
  bb316713-af84-4eec-b4fe-3cd8a2147c88, !- Wednesday Schedule:Day Name
  bb316713-af84-4eec-b4fe-3cd8a2147c88, !- Thursday Schedule:Day Name
  bb316713-af84-4eec-b4fe-3cd8a2147c88, !- Friday Schedule:Day Name
  33a40c0d-4940-46d6-9ed8-d980077da102, !- Saturday Schedule:Day Name
  33a40c0d-4940-46d6-9ed8-d980077da102, !- Holiday Schedule:Day Name
  33a40c0d-4940-46d6-9ed8-d980077da102, !- SummerDesignDay Schedule:Day Name
  33a40c0d-4940-46d6-9ed8-d980077da102, !- WinterDesignDay Schedule:Day Name
  33a40c0d-4940-46d6-9ed8-d980077da102, !- CustomDay1 Schedule:Day Name
  33a40c0d-4940-46d6-9ed8-d980077da102; !- CustomDay2 Schedule:Day Name

Schedule:Week:Daily, NECB-D-Thermostat Setpoint-Cooling_35,
  33a40c0d-4940-46d6-9ed8-d980077da102, !- Sunday Schedule:Day Name
  bb316713-af84-4eec-b4fe-3cd8a2147c88, !- Monday Schedule:Day Name
  bb316713-af84-4eec-b4fe-3cd8a2147c88, !- Tuesday Schedule:Day Name
  bb316713-af84-4eec-b4fe-3cd8a2147c88, !- Wednesday Schedule:Day Name
  bb316713-af84-4eec-b4fe-3cd8a2147c88, !- Thursday Schedule:Day Name
  bb316713-af84-4eec-b4fe-3cd8a2147c88, !- Friday Schedule:Day Name
  33a40c0d-4940-46d6-9ed8-d980077da102, !- Saturday Schedule:Day Name
  33a40c0d-4940-46d6-9ed8-d980077da102, !- Holiday Schedule:Day Name
  33a40c0d-4940-46d6-9ed8-d980077da102, !- SummerDesignDay Schedule:Day Name
  33a40c0d-4940-46d6-9ed8-d980077da102, !- WinterDesignDay Schedule:Day Name
  33a40c0d-4940-46d6-9ed8-d980077da102, !- CustomDay1 Schedule:Day Name
  33a40c0d-4940-46d6-9ed8-d980077da102; !- CustomDay2 Schedule:Day Name

Schedule:Week:Daily, NECB-D-Thermostat Setpoint-Cooling_36,
  33a40c0d-4940-46d6-9ed8-d980077da102, !- Sunday Schedule:Day Name
  bb316713-af84-4eec-b4fe-3cd8a2147c88, !- Monday Schedule:Day Name
  bb316713-af84-4eec-b4fe-3cd8a2147c88, !- Tuesday Schedule:Day Name
  bb316713-af84-4eec-b4fe-3cd8a2147c88, !- Wednesday Schedule:Day Name
  bb316713-af84-4eec-b4fe-3cd8a2147c88, !- Thursday Schedule:Day Name
  bb316713-af84-4eec-b4fe-3cd8a2147c88, !- Friday Schedule:Day Name
  33a40c0d-4940-46d6-9ed8-d980077da102, !- Saturday Schedule:Day Name
  33a40c0d-4940-46d6-9ed8-d980077da102, !- Holiday Schedule:Day Name
  33a40c0d-4940-46d6-9ed8-d980077da102, !- SummerDesignDay Schedule:Day Name
  33a40c0d-4940-46d6-9ed8-d980077da102, !- WinterDesignDay Schedule:Day Name
  33a40c0d-4940-46d6-9ed8-d980077da102, !- CustomDay1 Schedule:Day Name
  33a40c0d-4940-46d6-9ed8-d980077da102; !- CustomDay2 Schedule:Day Name

Schedule:Week:Daily, NECB-D-Thermostat Setpoint-Cooling_37,
  33a40c0d-4940-46d6-9ed8-d980077da102, !- Sunday Schedule:Day Name
  bb316713-af84-4eec-b4fe-3cd8a2147c88, !- Monday Schedule:Day Name
  bb316713-af84-4eec-b4fe-3cd8a2147c88, !- Tuesday Schedule:Day Name
  bb316713-af84-4eec-b4fe-3cd8a2147c88, !- Wednesday Schedule:Day Name
  bb316713-af84-4eec-b4fe-3cd8a2147c88, !- Thursday Schedule:Day Name
  bb316713-af84-4eec-b4fe-3cd8a2147c88, !- Friday Schedule:Day Name
  33a40c0d-4940-46d6-9ed8-d980077da102, !- Saturday Schedule:Day Name
  33a40c0d-4940-46d6-9ed8-d980077da102, !- Holiday Schedule:Day Name
  33a40c0d-4940-46d6-9ed8-d980077da102, !- SummerDesignDay Schedule:Day Name
  33a40c0d-4940-46d6-9ed8-d980077da102, !- WinterDesignDay Schedule:Day Name
  33a40c0d-4940-46d6-9ed8-d980077da102, !- CustomDay1 Schedule:Day Name
  33a40c0d-4940-46d6-9ed8-d980077da102; !- CustomDay2 Schedule:Day Name

Schedule:Week:Daily, NECB-D-Thermostat Setpoint-Cooling_38,
  33a40c0d-4940-46d6-9ed8-d980077da102, !- Sunday Schedule:Day Name
  bb316713-af84-4eec-b4fe-3cd8a2147c88, !- Monday Schedule:Day Name
  bb316713-af84-4eec-b4fe-3cd8a2147c88, !- Tuesday Schedule:Day Name
  bb316713-af84-4eec-b4fe-3cd8a2147c88, !- Wednesday Schedule:Day Name
  bb316713-af84-4eec-b4fe-3cd8a2147c88, !- Thursday Schedule:Day Name
  bb316713-af84-4eec-b4fe-3cd8a2147c88, !- Friday Schedule:Day Name
  33a40c0d-4940-46d6-9ed8-d980077da102, !- Saturday Schedule:Day Name
  33a40c0d-4940-46d6-9ed8-d980077da102, !- Holiday Schedule:Day Name
  33a40c0d-4940-46d6-9ed8-d980077da102, !- SummerDesignDay Schedule:Day Name
  33a40c0d-4940-46d6-9ed8-d980077da102, !- WinterDesignDay Schedule:Day Name
  33a40c0d-4940-46d6-9ed8-d980077da102, !- CustomDay1 Schedule:Day Name
  33a40c0d-4940-46d6-9ed8-d980077da102; !- CustomDay2 Schedule:Day Name

Schedule:Week:Daily, NECB-D-Thermostat Setpoint-Cooling_39,
  33a40c0d-4940-46d6-9ed8-d980077da102, !- Sunday Schedule:Day Name
  bb316713-af84-4eec-b4fe-3cd8a2147c88, !- Monday Schedule:Day Name
  bb316713-af84-4eec-b4fe-3cd8a2147c88, !- Tuesday Schedule:Day Name
  bb316713-af84-4eec-b4fe-3cd8a2147c88, !- Wednesday Schedule:Day Name
  bb316713-af84-4eec-b4fe-3cd8a2147c88, !- Thursday Schedule:Day Name
  bb316713-af84-4eec-b4fe-3cd8a2147c88, !- Friday Schedule:Day Name
  33a40c0d-4940-46d6-9ed8-d980077da102, !- Saturday Schedule:Day Name
  33a40c0d-4940-46d6-9ed8-d980077da102, !- Holiday Schedule:Day Name
  33a40c0d-4940-46d6-9ed8-d980077da102, !- SummerDesignDay Schedule:Day Name
  33a40c0d-4940-46d6-9ed8-d980077da102, !- WinterDesignDay Schedule:Day Name
  33a40c0d-4940-46d6-9ed8-d980077da102, !- CustomDay1 Schedule:Day Name
  33a40c0d-4940-46d6-9ed8-d980077da102; !- CustomDay2 Schedule:Day Name

Schedule:Week:Daily, NECB-D-Thermostat Setpoint-Cooling_40,
  33a40c0d-4940-46d6-9ed8-d980077da102, !- Sunday Schedule:Day Name
  bb316713-af84-4eec-b4fe-3cd8a2147c88, !- Monday Schedule:Day Name
  bb316713-af84-4eec-b4fe-3cd8a2147c88, !- Tuesday Schedule:Day Name
  bb316713-af84-4eec-b4fe-3cd8a2147c88, !- Wednesday Schedule:Day Name
  bb316713-af84-4eec-b4fe-3cd8a2147c88, !- Thursday Schedule:Day Name
  bb316713-af84-4eec-b4fe-3cd8a2147c88, !- Friday Schedule:Day Name
  33a40c0d-4940-46d6-9ed8-d980077da102, !- Saturday Schedule:Day Name
  33a40c0d-4940-46d6-9ed8-d980077da102, !- Holiday Schedule:Day Name
  33a40c0d-4940-46d6-9ed8-d980077da102, !- SummerDesignDay Schedule:Day Name
  33a40c0d-4940-46d6-9ed8-d980077da102, !- WinterDesignDay Schedule:Day Name
  33a40c0d-4940-46d6-9ed8-d980077da102, !- CustomDay1 Schedule:Day Name
  33a40c0d-4940-46d6-9ed8-d980077da102; !- CustomDay2 Schedule:Day Name

Schedule:Week:Daily, NECB-D-Thermostat Setpoint-Cooling_41,
  33a40c0d-4940-46d6-9ed8-d980077da102, !- Sunday Schedule:Day Name
  bb316713-af84-4eec-b4fe-3cd8a2147c88, !- Monday Schedule:Day Name
  bb316713-af84-4eec-b4fe-3cd8a2147c88, !- Tuesday Schedule:Day Name
  bb316713-af84-4eec-b4fe-3cd8a2147c88, !- Wednesday Schedule:Day Name
  bb316713-af84-4eec-b4fe-3cd8a2147c88, !- Thursday Schedule:Day Name
  bb316713-af84-4eec-b4fe-3cd8a2147c88, !- Friday Schedule:Day Name
  33a40c0d-4940-46d6-9ed8-d980077da102, !- Saturday Schedule:Day Name
  33a40c0d-4940-46d6-9ed8-d980077da102, !- Holiday Schedule:Day Name
  33a40c0d-4940-46d6-9ed8-d980077da102, !- SummerDesignDay Schedule:Day Name
  33a40c0d-4940-46d6-9ed8-d980077da102, !- WinterDesignDay Schedule:Day Name
  33a40c0d-4940-46d6-9ed8-d980077da102, !- CustomDay1 Schedule:Day Name
  33a40c0d-4940-46d6-9ed8-d980077da102; !- CustomDay2 Schedule:Day Name

Schedule:Week:Daily, NECB-D-Thermostat Setpoint-Cooling_42,
  33a40c0d-4940-46d6-9ed8-d980077da102, !- Sunday Schedule:Day Name
  bb316713-af84-4eec-b4fe-3cd8a2147c88, !- Monday Schedule:Day Name
  bb316713-af84-4eec-b4fe-3cd8a2147c88, !- Tuesday Schedule:Day Name
  bb316713-af84-4eec-b4fe-3cd8a2147c88, !- Wednesday Schedule:Day Name
  bb316713-af84-4eec-b4fe-3cd8a2147c88, !- Thursday Schedule:Day Name
  bb316713-af84-4eec-b4fe-3cd8a2147c88, !- Friday Schedule:Day Name
  33a40c0d-4940-46d6-9ed8-d980077da102, !- Saturday Schedule:Day Name
  33a40c0d-4940-46d6-9ed8-d980077da102, !- Holiday Schedule:Day Name
  33a40c0d-4940-46d6-9ed8-d980077da102, !- SummerDesignDay Schedule:Day Name
  33a40c0d-4940-46d6-9ed8-d980077da102, !- WinterDesignDay Schedule:Day Name
  33a40c0d-4940-46d6-9ed8-d980077da102, !- CustomDay1 Schedule:Day Name
  33a40c0d-4940-46d6-9ed8-d980077da102; !- CustomDay2 Schedule:Day Name

Schedule:Week:Daily, NECB-D-Thermostat Setpoint-Cooling_43,
  33a40c0d-4940-46d6-9ed8-d980077da102, !- Sunday Schedule:Day Name
  bb316713-af84-4eec-b4fe-3cd8a2147c88, !- Monday Schedule:Day Name
  bb316713-af84-4eec-b4fe-3cd8a2147c88, !- Tuesday Schedule:Day Name
  bb316713-af84-4eec-b4fe-3cd8a2147c88, !- Wednesday Schedule:Day Name
  bb316713-af84-4eec-b4fe-3cd8a2147c88, !- Thursday Schedule:Day Name
  bb316713-af84-4eec-b4fe-3cd8a2147c88, !- Friday Schedule:Day Name
  33a40c0d-4940-46d6-9ed8-d980077da102, !- Saturday Schedule:Day Name
  33a40c0d-4940-46d6-9ed8-d980077da102, !- Holiday Schedule:Day Name
  33a40c0d-4940-46d6-9ed8-d980077da102, !- SummerDesignDay Schedule:Day Name
  33a40c0d-4940-46d6-9ed8-d980077da102, !- WinterDesignDay Schedule:Day Name
  33a40c0d-4940-46d6-9ed8-d980077da102, !- CustomDay1 Schedule:Day Name
  33a40c0d-4940-46d6-9ed8-d980077da102; !- CustomDay2 Schedule:Day Name

Schedule:Week:Daily, NECB-D-Thermostat Setpoint-Cooling_44,
  33a40c0d-4940-46d6-9ed8-d980077da102, !- Sunday Schedule:Day Name
  bb316713-af84-4eec-b4fe-3cd8a2147c88, !- Monday Schedule:Day Name
  bb316713-af84-4eec-b4fe-3cd8a2147c88, !- Tuesday Schedule:Day Name
  bb316713-af84-4eec-b4fe-3cd8a2147c88, !- Wednesday Schedule:Day Name
  bb316713-af84-4eec-b4fe-3cd8a2147c88, !- Thursday Schedule:Day Name
  bb316713-af84-4eec-b4fe-3cd8a2147c88, !- Friday Schedule:Day Name
  33a40c0d-4940-46d6-9ed8-d980077da102, !- Saturday Schedule:Day Name
  33a40c0d-4940-46d6-9ed8-d980077da102, !- Holiday Schedule:Day Name
  33a40c0d-4940-46d6-9ed8-d980077da102, !- SummerDesignDay Schedule:Day Name
  33a40c0d-4940-46d6-9ed8-d980077da102, !- WinterDesignDay Schedule:Day Name
  33a40c0d-4940-46d6-9ed8-d980077da102, !- CustomDay1 Schedule:Day Name
  33a40c0d-4940-46d6-9ed8-d980077da102; !- CustomDay2 Schedule:Day Name

Schedule:Week:Daily, NECB-D-Thermostat Setpoint-Cooling_45,
  33a40c0d-4940-46d6-9ed8-d980077da102, !- Sunday Schedule:Day Name
  bb316713-af84-4eec-b4fe-3cd8a2147c88, !- Monday Schedule:Day Name
  bb316713-af84-4eec-b4fe-3cd8a2147c88, !- Tuesday Schedule:Day Name
  bb316713-af84-4eec-b4fe-3cd8a2147c88, !- Wednesday Schedule:Day Name
  bb316713-af84-4eec-b4fe-3cd8a2147c88, !- Thursday Schedule:Day Name
  bb316713-af84-4eec-b4fe-3cd8a2147c88, !- Friday Schedule:Day Name
  33a40c0d-4940-46d6-9ed8-d980077da102, !- Saturday Schedule:Day Name
  33a40c0d-4940-46d6-9ed8-d980077da102, !- Holiday Schedule:Day Name
  33a40c0d-4940-46d6-9ed8-d980077da102, !- SummerDesignDay Schedule:Day Name
  33a40c0d-4940-46d6-9ed8-d980077da102, !- WinterDesignDay Schedule:Day Name
  33a40c0d-4940-46d6-9ed8-d980077da102, !- CustomDay1 Schedule:Day Name
  33a40c0d-4940-46d6-9ed8-d980077da102; !- CustomDay2 Schedule:Day Name

Schedule:Week:Daily, NECB-D-Thermostat Setpoint-Cooling_46,
  33a40c0d-4940-46d6-9ed8-d980077da102, !- Sunday Schedule:Day Name
  bb316713-af84-4eec-b4fe-3cd8a2147c88, !- Monday Schedule:Day Name
  bb316713-af84-4eec-b4fe-3cd8a2147c88, !- Tuesday Schedule:Day Name
  bb316713-af84-4eec-b4fe-3cd8a2147c88, !- Wednesday Schedule:Day Name
  bb316713-af84-4eec-b4fe-3cd8a2147c88, !- Thursday Schedule:Day Name
  bb316713-af84-4eec-b4fe-3cd8a2147c88, !- Friday Schedule:Day Name
  33a40c0d-4940-46d6-9ed8-d980077da102, !- Saturday Schedule:Day Name
  33a40c0d-4940-46d6-9ed8-d980077da102, !- Holiday Schedule:Day Name
  33a40c0d-4940-46d6-9ed8-d980077da102, !- SummerDesignDay Schedule:Day Name
  33a40c0d-4940-46d6-9ed8-d980077da102, !- WinterDesignDay Schedule:Day Name
  33a40c0d-4940-46d6-9ed8-d980077da102, !- CustomDay1 Schedule:Day Name
  33a40c0d-4940-46d6-9ed8-d980077da102; !- CustomDay2 Schedule:Day Name

Schedule:Week:Daily, NECB-D-Thermostat Setpoint-Cooling_47,
  33a40c0d-4940-46d6-9ed8-d980077da102, !- Sunday Schedule:Day Name
  bb316713-af84-4eec-b4fe-3cd8a2147c88, !- Monday Schedule:Day Name
  bb316713-af84-4eec-b4fe-3cd8a2147c88, !- Tuesday Schedule:Day Name
  bb316713-af84-4eec-b4fe-3cd8a2147c88, !- Wednesday Schedule:Day Name
  bb316713-af84-4eec-b4fe-3cd8a2147c88, !- Thursday Schedule:Day Name
  bb316713-af84-4eec-b4fe-3cd8a2147c88, !- Friday Schedule:Day Name
  33a40c0d-4940-46d6-9ed8-d980077da102, !- Saturday Schedule:Day Name
  33a40c0d-4940-46d6-9ed8-d980077da102, !- Holiday Schedule:Day Name
  33a40c0d-4940-46d6-9ed8-d980077da102, !- SummerDesignDay Schedule:Day Name
  33a40c0d-4940-46d6-9ed8-d980077da102, !- WinterDesignDay Schedule:Day Name
  33a40c0d-4940-46d6-9ed8-d980077da102, !- CustomDay1 Schedule:Day Name
  33a40c0d-4940-46d6-9ed8-d980077da102; !- CustomDay2 Schedule:Day Name

Schedule:Week:Daily, NECB-D-Thermostat Setpoint-Cooling_48,
  33a40c0d-4940-46d6-9ed8-d980077da102, !- Sunday Schedule:Day Name
  bb316713-af84-4eec-b4fe-3cd8a2147c88, !- Monday Schedule:Day Name
  bb316713-af84-4eec-b4fe-3cd8a2147c88, !- Tuesday Schedule:Day Name
  bb316713-af84-4eec-b4fe-3cd8a2147c88, !- Wednesday Schedule:Day Name
  bb316713-af84-4eec-b4fe-3cd8a2147c88, !- Thursday Schedule:Day Name
  bb316713-af84-4eec-b4fe-3cd8a2147c88, !- Friday Schedule:Day Name
  33a40c0d-4940-46d6-9ed8-d980077da102, !- Saturday Schedule:Day Name
  33a40c0d-4940-46d6-9ed8-d980077da102, !- Holiday Schedule:Day Name
  33a40c0d-4940-46d6-9ed8-d980077da102, !- SummerDesignDay Schedule:Day Name
  33a40c0d-4940-46d6-9ed8-d980077da102, !- WinterDesignDay Schedule:Day Name
  33a40c0d-4940-46d6-9ed8-d980077da102, !- CustomDay1 Schedule:Day Name
  33a40c0d-4940-46d6-9ed8-d980077da102; !- CustomDay2 Schedule:Day Name

Schedule:Week:Daily, NECB-D-Thermostat Setpoint-Cooling_49,
  33a40c0d-4940-46d6-9ed8-d980077da102, !- Sunday Schedule:Day Name
  bb316713-af84-4eec-b4fe-3cd8a2147c88, !- Monday Schedule:Day Name
  bb316713-af84-4eec-b4fe-3cd8a2147c88, !- Tuesday Schedule:Day Name
  bb316713-af84-4eec-b4fe-3cd8a2147c88, !- Wednesday Schedule:Day Name
  bb316713-af84-4eec-b4fe-3cd8a2147c88, !- Thursday Schedule:Day Name
  bb316713-af84-4eec-b4fe-3cd8a2147c88, !- Friday Schedule:Day Name
  33a40c0d-4940-46d6-9ed8-d980077da102, !- Saturday Schedule:Day Name
  33a40c0d-4940-46d6-9ed8-d980077da102, !- Holiday Schedule:Day Name
  33a40c0d-4940-46d6-9ed8-d980077da102, !- SummerDesignDay Schedule:Day Name
  33a40c0d-4940-46d6-9ed8-d980077da102, !- WinterDesignDay Schedule:Day Name
  33a40c0d-4940-46d6-9ed8-d980077da102, !- CustomDay1 Schedule:Day Name
  33a40c0d-4940-46d6-9ed8-d980077da102; !- CustomDay2 Schedule:Day Name

Schedule:Week:Daily, NECB-D-Thermostat Setpoint-Cooling_50,
  33a40c0d-4940-46d6-9ed8-d980077da102, !- Sunday Schedule:Day Name
  bb316713-af84-4eec-b4fe-3cd8a2147c88, !- Monday Schedule:Day Name
  bb316713-af84-4eec-b4fe-3cd8a2147c88, !- Tuesday Schedule:Day Name
  bb316713-af84-4eec-b4fe-3cd8a2147c88, !- Wednesday Schedule:Day Name
  bb316713-af84-4eec-b4fe-3cd8a2147c88, !- Thursday Schedule:Day Name
  bb316713-af84-4eec-b4fe-3cd8a2147c88, !- Friday Schedule:Day Name
  33a40c0d-4940-46d6-9ed8-d980077da102, !- Saturday Schedule:Day Name
  33a40c0d-4940-46d6-9ed8-d980077da102, !- Holiday Schedule:Day Name
  33a40c0d-4940-46d6-9ed8-d980077da102, !- SummerDesignDay Schedule:Day Name
  33a40c0d-4940-46d6-9ed8-d980077da102, !- WinterDesignDay Schedule:Day Name
  33a40c0d-4940-46d6-9ed8-d980077da102, !- CustomDay1 Schedule:Day Name
  33a40c0d-4940-46d6-9ed8-d980077da102; !- CustomDay2 Schedule:Day Name

Schedule:Week:Daily, NECB-D-Thermostat Setpoint-Cooling_51,
  33a40c0d-4940-46d6-9ed8-d980077da102, !- Sunday Schedule:Day Name
  bb316713-af84-4eec-b4fe-3cd8a2147c88, !- Monday Schedule:Day Name
  bb316713-af84-4eec-b4fe-3cd8a2147c88, !- Tuesday Schedule:Day Name
  bb316713-af84-4eec-b4fe-3cd8a2147c88, !- Wednesday Schedule:Day Name
  bb316713-af84-4eec-b4fe-3cd8a2147c88, !- Thursday Schedule:Day Name
  bb316713-af84-4eec-b4fe-3cd8a2147c88, !- Friday Schedule:Day Name
  33a40c0d-4940-46d6-9ed8-d980077da102, !- Saturday Schedule:Day Name
  33a40c0d-4940-46d6-9ed8-d980077da102, !- Holiday Schedule:Day Name
  33a40c0d-4940-46d6-9ed8-d980077da102, !- SummerDesignDay Schedule:Day Name
  33a40c0d-4940-46d6-9ed8-d980077da102, !- WinterDesignDay Schedule:Day Name
  33a40c0d-4940-46d6-9ed8-d980077da102, !- CustomDay1 Schedule:Day Name
  33a40c0d-4940-46d6-9ed8-d980077da102; !- CustomDay2 Schedule:Day Name

Schedule:Week:Daily, NECB-D-Thermostat Setpoint-Cooling_52,
  33a40c0d-4940-46d6-9ed8-d980077da102, !- Sunday Schedule:Day Name
  33a40c0d-4940-46d6-9ed8-d980077da102, !- Monday Schedule:Day Name
  33a40c0d-4940-46d6-9ed8-d980077da102, !- Tuesday Schedule:Day Name
  33a40c0d-4940-46d6-9ed8-d980077da102, !- Wednesday Schedule:Day Name
  33a40c0d-4940-46d6-9ed8-d980077da102, !- Thursday Schedule:Day Name
  33a40c0d-4940-46d6-9ed8-d980077da102, !- Friday Schedule:Day Name
  33a40c0d-4940-46d6-9ed8-d980077da102, !- Saturday Schedule:Day Name
  33a40c0d-4940-46d6-9ed8-d980077da102, !- Holiday Schedule:Day Name
  33a40c0d-4940-46d6-9ed8-d980077da102, !- SummerDesignDay Schedule:Day Name
  33a40c0d-4940-46d6-9ed8-d980077da102, !- WinterDesignDay Schedule:Day Name
  33a40c0d-4940-46d6-9ed8-d980077da102, !- CustomDay1 Schedule:Day Name
  33a40c0d-4940-46d6-9ed8-d980077da102; !- CustomDay2 Schedule:Day Name


Schedule:Year,HeatAvail_S17_0,
Fraction,
HeatAvail_S17_0_0,1,1,1,7, 
HeatAvail_S17_0_1,1,8,1,14, 
HeatAvail_S17_0_2,1,15,1,21, 
HeatAvail_S17_0_3,1,22,1,28, 
HeatAvail_S17_0_4,1,29,2,4, 
HeatAvail_S17_0_5,2,5,2,11, 
HeatAvail_S17_0_6,2,12,2,18, 
HeatAvail_S17_0_7,2,19,2,25, 
HeatAvail_S17_0_8,2,26,3,4, 
HeatAvail_S17_0_9,3,5,3,11, 
HeatAvail_S17_0_10,3,12,3,18, 
HeatAvail_S17_0_11,3,19,3,25, 
HeatAvail_S17_0_12,3,26,4,1, 
HeatAvail_S17_0_13,4,2,4,8, 
HeatAvail_S17_0_14,4,9,4,15, 
HeatAvail_S17_0_15,4,16,4,22, 
HeatAvail_S17_0_16,4,23,4,29, 
HeatAvail_S17_0_17,4,30,5,6, 
HeatAvail_S17_0_18,5,7,5,13, 
HeatAvail_S17_0_19,5,14,5,20, 
HeatAvail_S17_0_20,5,21,5,27, 
HeatAvail_S17_0_21,5,28,6,3, 
HeatAvail_S17_0_22,6,4,6,10, 
HeatAvail_S17_0_23,6,11,6,17, 
HeatAvail_S17_0_24,6,18,6,24, 
HeatAvail_S17_0_25,6,25,7,1, 
HeatAvail_S17_0_26,7,2,7,8, 
HeatAvail_S17_0_27,7,9,7,15, 
HeatAvail_S17_0_28,7,16,7,22, 
HeatAvail_S17_0_29,7,23,7,29, 
HeatAvail_S17_0_30,7,30,8,5, 
HeatAvail_S17_0_31,8,6,8,12, 
HeatAvail_S17_0_32,8,13,8,19, 
HeatAvail_S17_0_33,8,20,8,26, 
HeatAvail_S17_0_34,8,27,9,2, 
HeatAvail_S17_0_35,9,3,9,9, 
HeatAvail_S17_0_36,9,10,9,16, 
HeatAvail_S17_0_37,9,17,9,23, 
HeatAvail_S17_0_38,9,24,9,30, 
HeatAvail_S17_0_39,10,1,10,7, 
HeatAvail_S17_0_40,10,8,10,14, 
HeatAvail_S17_0_41,10,15,10,21, 
HeatAvail_S17_0_42,10,22,10,28, 
HeatAvail_S17_0_43,10,29,11,4, 
HeatAvail_S17_0_44,11,5,11,11, 
HeatAvail_S17_0_45,11,12,11,18, 
HeatAvail_S17_0_46,11,19,11,25, 
HeatAvail_S17_0_47,11,26,12,2, 
HeatAvail_S17_0_48,12,3,12,9, 
HeatAvail_S17_0_49,12,10,12,16, 
HeatAvail_S17_0_50,12,17,12,23, 
HeatAvail_S17_0_51,12,24,12,30, 
HeatAvail_S17_0_52,12,31,12,31;

Schedule:Week:Daily, HeatAvail_S17_0_0,
  35e0ada2-1fee-451a-872b-049bc328d088, !- Sunday Schedule:Day Name
  22a1e51b-2093-4564-b5ed-ae6a32fcb6cb, !- Monday Schedule:Day Name
  18ce9471-8bdb-489d-965b-bcdf2857541a, !- Tuesday Schedule:Day Name
  93c71081-cbe4-4eb5-9f3c-f12a02c83db0, !- Wednesday Schedule:Day Name
  1f044a77-4373-4b65-9cfa-418fe716a1c5, !- Thursday Schedule:Day Name
  e560b093-007b-4360-b31a-7a0bf4edafff, !- Friday Schedule:Day Name
  1ec8c980-b02c-47a4-9524-b203a8ab2c3e, !- Saturday Schedule:Day Name
  35e0ada2-1fee-451a-872b-049bc328d088, !- Holiday Schedule:Day Name
  35e0ada2-1fee-451a-872b-049bc328d088, !- SummerDesignDay Schedule:Day Name
  35e0ada2-1fee-451a-872b-049bc328d088, !- WinterDesignDay Schedule:Day Name
  35e0ada2-1fee-451a-872b-049bc328d088, !- CustomDay1 Schedule:Day Name
  35e0ada2-1fee-451a-872b-049bc328d088; !- CustomDay2 Schedule:Day Name

Schedule:Week:Daily, HeatAvail_S17_0_1,
  324a820c-9e79-4287-9929-5af24269ea02, !- Sunday Schedule:Day Name
  d2bd790c-733a-41eb-a348-2e58957206cc, !- Monday Schedule:Day Name
  b5ea207a-2cc6-4af2-9c60-944d1f007baf, !- Tuesday Schedule:Day Name
  0fb9e873-759a-4ed1-94f3-fcd0b80e411f, !- Wednesday Schedule:Day Name
  51f0ba7f-1edf-4522-935d-482393d8bc4a, !- Thursday Schedule:Day Name
  c8a7d920-df9d-4fb4-8e97-aad656506ff0, !- Friday Schedule:Day Name
  bfbfc2df-fa15-438a-b2dd-40b7ea6d6a0b, !- Saturday Schedule:Day Name
  324a820c-9e79-4287-9929-5af24269ea02, !- Holiday Schedule:Day Name
  324a820c-9e79-4287-9929-5af24269ea02, !- SummerDesignDay Schedule:Day Name
  324a820c-9e79-4287-9929-5af24269ea02, !- WinterDesignDay Schedule:Day Name
  324a820c-9e79-4287-9929-5af24269ea02, !- CustomDay1 Schedule:Day Name
  324a820c-9e79-4287-9929-5af24269ea02; !- CustomDay2 Schedule:Day Name

Schedule:Week:Daily, HeatAvail_S17_0_2,
  c1428ebc-0e65-48db-aa2f-6f1fb31db145, !- Sunday Schedule:Day Name
  ce9b52fa-82e4-48d7-84cb-e3e2f4bd7fa5, !- Monday Schedule:Day Name
  51f0ba7f-1edf-4522-935d-482393d8bc4a, !- Tuesday Schedule:Day Name
  281b3a77-3921-41c9-87cf-cd3cf9a1d6b3, !- Wednesday Schedule:Day Name
  22a1e51b-2093-4564-b5ed-ae6a32fcb6cb, !- Thursday Schedule:Day Name
  d03e1a2a-7fdf-4387-9508-896c8563ea3d, !- Friday Schedule:Day Name
  cbcab192-8069-4d34-910e-4223db92558d, !- Saturday Schedule:Day Name
  c1428ebc-0e65-48db-aa2f-6f1fb31db145, !- Holiday Schedule:Day Name
  c1428ebc-0e65-48db-aa2f-6f1fb31db145, !- SummerDesignDay Schedule:Day Name
  c1428ebc-0e65-48db-aa2f-6f1fb31db145, !- WinterDesignDay Schedule:Day Name
  c1428ebc-0e65-48db-aa2f-6f1fb31db145, !- CustomDay1 Schedule:Day Name
  c1428ebc-0e65-48db-aa2f-6f1fb31db145; !- CustomDay2 Schedule:Day Name

Schedule:Week:Daily, HeatAvail_S17_0_3,
  3374cfcf-e8ca-42e8-9193-67e36cd658cd, !- Sunday Schedule:Day Name
  9dc2f2c1-899f-4b0a-b792-ac2eeb1a4e6c, !- Monday Schedule:Day Name
  13054b51-3002-4484-aeba-b371d14d3692, !- Tuesday Schedule:Day Name
  b5e365fb-09dc-4d87-84ea-0cbd151cd866, !- Wednesday Schedule:Day Name
  019be431-dead-44d3-b7ce-a45f448d86cd, !- Thursday Schedule:Day Name
  35e0ada2-1fee-451a-872b-049bc328d088, !- Friday Schedule:Day Name
  ebf59084-486f-4765-8e31-6ab24806cde4, !- Saturday Schedule:Day Name
  3374cfcf-e8ca-42e8-9193-67e36cd658cd, !- Holiday Schedule:Day Name
  3374cfcf-e8ca-42e8-9193-67e36cd658cd, !- SummerDesignDay Schedule:Day Name
  3374cfcf-e8ca-42e8-9193-67e36cd658cd, !- WinterDesignDay Schedule:Day Name
  3374cfcf-e8ca-42e8-9193-67e36cd658cd, !- CustomDay1 Schedule:Day Name
  3374cfcf-e8ca-42e8-9193-67e36cd658cd; !- CustomDay2 Schedule:Day Name

Schedule:Week:Daily, HeatAvail_S17_0_4,
  033443dd-be0d-481a-aa45-34e2afabf295, !- Sunday Schedule:Day Name
  b004ddaf-2958-4d42-bbfd-c34962752437, !- Monday Schedule:Day Name
  3118f7e2-22ff-41b2-8baa-8cf338a4d165, !- Tuesday Schedule:Day Name
  76cfda5b-3bcf-4091-91b8-c7317ff53b3f, !- Wednesday Schedule:Day Name
  dbd1f11d-7d18-4399-a402-b57c5d01dad8, !- Thursday Schedule:Day Name
  5d715e94-220a-4c54-8f28-ad7d20c66552, !- Friday Schedule:Day Name
  b004ddaf-2958-4d42-bbfd-c34962752437, !- Saturday Schedule:Day Name
  033443dd-be0d-481a-aa45-34e2afabf295, !- Holiday Schedule:Day Name
  033443dd-be0d-481a-aa45-34e2afabf295, !- SummerDesignDay Schedule:Day Name
  033443dd-be0d-481a-aa45-34e2afabf295, !- WinterDesignDay Schedule:Day Name
  033443dd-be0d-481a-aa45-34e2afabf295, !- CustomDay1 Schedule:Day Name
  033443dd-be0d-481a-aa45-34e2afabf295; !- CustomDay2 Schedule:Day Name

Schedule:Week:Daily, HeatAvail_S17_0_5,
  037c2644-b41a-454e-919a-2fa64f1a5a72, !- Sunday Schedule:Day Name
  73acdd30-99d9-4ef9-a6ab-29992fc131c9, !- Monday Schedule:Day Name
  443bf915-bfa2-47cc-84e2-2f654a24a71c, !- Tuesday Schedule:Day Name
  0c0459a7-d2ea-4bfe-a1a3-77e345ad8887, !- Wednesday Schedule:Day Name
  d0d65797-fe6b-4387-b5c4-f17f0428ef62, !- Thursday Schedule:Day Name
  4ca48648-d144-4590-a357-3cf62a8bad81, !- Friday Schedule:Day Name
  6e51a55f-234d-41a8-9913-cb78d502f61b, !- Saturday Schedule:Day Name
  037c2644-b41a-454e-919a-2fa64f1a5a72, !- Holiday Schedule:Day Name
  037c2644-b41a-454e-919a-2fa64f1a5a72, !- SummerDesignDay Schedule:Day Name
  037c2644-b41a-454e-919a-2fa64f1a5a72, !- WinterDesignDay Schedule:Day Name
  037c2644-b41a-454e-919a-2fa64f1a5a72, !- CustomDay1 Schedule:Day Name
  037c2644-b41a-454e-919a-2fa64f1a5a72; !- CustomDay2 Schedule:Day Name

Schedule:Week:Daily, HeatAvail_S17_0_6,
  6bc8c13f-a8d4-4816-8eb9-3ad649a8b2f3, !- Sunday Schedule:Day Name
  154ac6fe-8fb9-4f76-a37d-10a1e5069a27, !- Monday Schedule:Day Name
  5bef0665-6dfe-4b99-a0bc-786cea2c9cba, !- Tuesday Schedule:Day Name
  2f96a23a-caca-4fab-84d7-b9a738102c7e, !- Wednesday Schedule:Day Name
  bd2db91d-8010-46a7-ae1e-aebfe4473f82, !- Thursday Schedule:Day Name
  673fec01-a229-454e-ac97-ad268db4b5e5, !- Friday Schedule:Day Name
  328e2f82-dc52-4c28-ab51-245193f499f0, !- Saturday Schedule:Day Name
  6bc8c13f-a8d4-4816-8eb9-3ad649a8b2f3, !- Holiday Schedule:Day Name
  6bc8c13f-a8d4-4816-8eb9-3ad649a8b2f3, !- SummerDesignDay Schedule:Day Name
  6bc8c13f-a8d4-4816-8eb9-3ad649a8b2f3, !- WinterDesignDay Schedule:Day Name
  6bc8c13f-a8d4-4816-8eb9-3ad649a8b2f3, !- CustomDay1 Schedule:Day Name
  6bc8c13f-a8d4-4816-8eb9-3ad649a8b2f3; !- CustomDay2 Schedule:Day Name

Schedule:Week:Daily, HeatAvail_S17_0_7,
  64b10d7a-e558-4ecf-9322-4c9a06b41c83, !- Sunday Schedule:Day Name
  b964e233-350c-48eb-b771-c4b9956ab54b, !- Monday Schedule:Day Name
  036865c2-b0aa-43ea-a3ae-c8f8331be7ac, !- Tuesday Schedule:Day Name
  daed71a7-0610-444b-b81c-b24dffd950f6, !- Wednesday Schedule:Day Name
  fbaf94e2-5723-47b8-90b1-441a046a4278, !- Thursday Schedule:Day Name
  8228bc38-434b-4133-9937-87d82ad577f0, !- Friday Schedule:Day Name
  b951dc44-e536-41f1-b4d8-aab17108d7f9, !- Saturday Schedule:Day Name
  64b10d7a-e558-4ecf-9322-4c9a06b41c83, !- Holiday Schedule:Day Name
  64b10d7a-e558-4ecf-9322-4c9a06b41c83, !- SummerDesignDay Schedule:Day Name
  64b10d7a-e558-4ecf-9322-4c9a06b41c83, !- WinterDesignDay Schedule:Day Name
  64b10d7a-e558-4ecf-9322-4c9a06b41c83, !- CustomDay1 Schedule:Day Name
  64b10d7a-e558-4ecf-9322-4c9a06b41c83; !- CustomDay2 Schedule:Day Name

Schedule:Week:Daily, HeatAvail_S17_0_8,
  104cd10c-28f3-48c2-aed0-745cf36fea65, !- Sunday Schedule:Day Name
  d6b4219d-073c-4d59-80b7-35fc61c1e207, !- Monday Schedule:Day Name
  401568ae-5745-4f16-bda9-d9aedd726401, !- Tuesday Schedule:Day Name
  49ce4846-11b3-4de5-90ef-fc16ec9d5b6d, !- Wednesday Schedule:Day Name
  fcde42c5-a226-4b21-a0d2-13213f855b12, !- Thursday Schedule:Day Name
  542cb977-cef9-4e33-8f3a-5abd994fb8eb, !- Friday Schedule:Day Name
  e51780fd-68b9-485c-b53b-41d4aa329173, !- Saturday Schedule:Day Name
  104cd10c-28f3-48c2-aed0-745cf36fea65, !- Holiday Schedule:Day Name
  104cd10c-28f3-48c2-aed0-745cf36fea65, !- SummerDesignDay Schedule:Day Name
  104cd10c-28f3-48c2-aed0-745cf36fea65, !- WinterDesignDay Schedule:Day Name
  104cd10c-28f3-48c2-aed0-745cf36fea65, !- CustomDay1 Schedule:Day Name
  104cd10c-28f3-48c2-aed0-745cf36fea65; !- CustomDay2 Schedule:Day Name

Schedule:Week:Daily, HeatAvail_S17_0_9,
  84655766-7118-4a80-a644-6c94a8cf6aa8, !- Sunday Schedule:Day Name
  f23e91b1-e21c-4567-9c25-f2b87eda8942, !- Monday Schedule:Day Name
  e51780fd-68b9-485c-b53b-41d4aa329173, !- Tuesday Schedule:Day Name
  2cbaec49-f577-4647-b3ed-73b7f9b900fd, !- Wednesday Schedule:Day Name
  f5d9dffc-fe21-496e-b55e-d684c3337099, !- Thursday Schedule:Day Name
  bd5b1cea-c878-4f3e-aec0-c2ac0ba00ee3, !- Friday Schedule:Day Name
  720da34d-5d68-461d-bdb9-e02285c661a7, !- Saturday Schedule:Day Name
  84655766-7118-4a80-a644-6c94a8cf6aa8, !- Holiday Schedule:Day Name
  84655766-7118-4a80-a644-6c94a8cf6aa8, !- SummerDesignDay Schedule:Day Name
  84655766-7118-4a80-a644-6c94a8cf6aa8, !- WinterDesignDay Schedule:Day Name
  84655766-7118-4a80-a644-6c94a8cf6aa8, !- CustomDay1 Schedule:Day Name
  84655766-7118-4a80-a644-6c94a8cf6aa8; !- CustomDay2 Schedule:Day Name

Schedule:Week:Daily, HeatAvail_S17_0_10,
  a4b975cc-a5df-49b6-abae-d9247bb6c1d3, !- Sunday Schedule:Day Name
  e51780fd-68b9-485c-b53b-41d4aa329173, !- Monday Schedule:Day Name
  05eb5a75-9c5d-4888-a75e-297719e52851, !- Tuesday Schedule:Day Name
  3d478d37-2a01-4d7a-8394-87f420d4056f, !- Wednesday Schedule:Day Name
  bb5da403-a042-4ac0-830c-c49b77a5b3c6, !- Thursday Schedule:Day Name
  144b99c6-371d-4e34-96fd-79be05b5df0d, !- Friday Schedule:Day Name
  101a4458-ffe6-4b53-8dd8-2467d667ba35, !- Saturday Schedule:Day Name
  a4b975cc-a5df-49b6-abae-d9247bb6c1d3, !- Holiday Schedule:Day Name
  a4b975cc-a5df-49b6-abae-d9247bb6c1d3, !- SummerDesignDay Schedule:Day Name
  a4b975cc-a5df-49b6-abae-d9247bb6c1d3, !- WinterDesignDay Schedule:Day Name
  a4b975cc-a5df-49b6-abae-d9247bb6c1d3, !- CustomDay1 Schedule:Day Name
  a4b975cc-a5df-49b6-abae-d9247bb6c1d3; !- CustomDay2 Schedule:Day Name

Schedule:Week:Daily, HeatAvail_S17_0_11,
  e51780fd-68b9-485c-b53b-41d4aa329173, !- Sunday Schedule:Day Name
  d3e8e271-9eeb-4542-a96c-283e1dd3b835, !- Monday Schedule:Day Name
  6d3bdc77-4564-471a-929c-e30b6d66f166, !- Tuesday Schedule:Day Name
  4dec3c6f-ebbe-4840-a156-b83b58bf089e, !- Wednesday Schedule:Day Name
  bcd3defc-df3e-4200-aec8-a559f004c132, !- Thursday Schedule:Day Name
  a24f8b0f-d930-4ec6-852d-d49dbee14f27, !- Friday Schedule:Day Name
  a3c9ef1d-5eb3-489d-aa31-011d2b399981, !- Saturday Schedule:Day Name
  e51780fd-68b9-485c-b53b-41d4aa329173, !- Holiday Schedule:Day Name
  e51780fd-68b9-485c-b53b-41d4aa329173, !- SummerDesignDay Schedule:Day Name
  e51780fd-68b9-485c-b53b-41d4aa329173, !- WinterDesignDay Schedule:Day Name
  e51780fd-68b9-485c-b53b-41d4aa329173, !- CustomDay1 Schedule:Day Name
  e51780fd-68b9-485c-b53b-41d4aa329173; !- CustomDay2 Schedule:Day Name

Schedule:Week:Daily, HeatAvail_S17_0_12,
  40cf7150-3db1-49aa-a175-be7604a9d796, !- Sunday Schedule:Day Name
  597e3bcf-50a5-4cee-bcda-a732ee54fb23, !- Monday Schedule:Day Name
  0c51b05c-c17b-42b0-8bf1-f191514907be, !- Tuesday Schedule:Day Name
  70282c88-819a-4162-8587-557ea488a8a5, !- Wednesday Schedule:Day Name
  d17734a9-dc6c-469e-8905-0c99d4a1be19, !- Thursday Schedule:Day Name
  5952833e-0dd6-4ae0-bab6-279d1a92a5dd, !- Friday Schedule:Day Name
  47d8ac42-281f-4586-a929-903761bdd1a7, !- Saturday Schedule:Day Name
  40cf7150-3db1-49aa-a175-be7604a9d796, !- Holiday Schedule:Day Name
  40cf7150-3db1-49aa-a175-be7604a9d796, !- SummerDesignDay Schedule:Day Name
  40cf7150-3db1-49aa-a175-be7604a9d796, !- WinterDesignDay Schedule:Day Name
  40cf7150-3db1-49aa-a175-be7604a9d796, !- CustomDay1 Schedule:Day Name
  40cf7150-3db1-49aa-a175-be7604a9d796; !- CustomDay2 Schedule:Day Name

Schedule:Week:Daily, HeatAvail_S17_0_13,
  186611b7-1db5-4e3a-8355-d0dec1fedc26, !- Sunday Schedule:Day Name
  84098980-877e-4635-a828-91e21f81b511, !- Monday Schedule:Day Name
  03b0116c-4688-4797-a88d-1b1f29f30a07, !- Tuesday Schedule:Day Name
  bd368ace-ef05-4c35-a01c-8a563ed94cf9, !- Wednesday Schedule:Day Name
  e1601026-7a88-4fbe-9fa2-717b51dc1f14, !- Thursday Schedule:Day Name
  bb575d25-fef9-4371-8b21-18cc0cde7ad8, !- Friday Schedule:Day Name
  56f694f2-8025-4063-bb34-8da1a62c7792, !- Saturday Schedule:Day Name
  186611b7-1db5-4e3a-8355-d0dec1fedc26, !- Holiday Schedule:Day Name
  186611b7-1db5-4e3a-8355-d0dec1fedc26, !- SummerDesignDay Schedule:Day Name
  186611b7-1db5-4e3a-8355-d0dec1fedc26, !- WinterDesignDay Schedule:Day Name
  186611b7-1db5-4e3a-8355-d0dec1fedc26, !- CustomDay1 Schedule:Day Name
  186611b7-1db5-4e3a-8355-d0dec1fedc26; !- CustomDay2 Schedule:Day Name

Schedule:Week:Daily, HeatAvail_S17_0_14,
  c75b36c4-872b-4d70-8e66-6397ceceeee9, !- Sunday Schedule:Day Name
  d8146e5e-3f8d-44b3-8039-e293e5046815, !- Monday Schedule:Day Name
  aa027ed6-10fd-491e-b979-7c4df764123a, !- Tuesday Schedule:Day Name
  5b8cced1-8d09-420b-bea1-3bcd082d2a59, !- Wednesday Schedule:Day Name
  aaadf03e-f1ed-4584-b967-708c863af830, !- Thursday Schedule:Day Name
  9271a65d-f0a2-4518-ab25-2b1222f43614, !- Friday Schedule:Day Name
  a03383d5-79b0-4cc1-9102-54055f6fa786, !- Saturday Schedule:Day Name
  c75b36c4-872b-4d70-8e66-6397ceceeee9, !- Holiday Schedule:Day Name
  c75b36c4-872b-4d70-8e66-6397ceceeee9, !- SummerDesignDay Schedule:Day Name
  c75b36c4-872b-4d70-8e66-6397ceceeee9, !- WinterDesignDay Schedule:Day Name
  c75b36c4-872b-4d70-8e66-6397ceceeee9, !- CustomDay1 Schedule:Day Name
  c75b36c4-872b-4d70-8e66-6397ceceeee9; !- CustomDay2 Schedule:Day Name

Schedule:Week:Daily, HeatAvail_S17_0_15,
  d9bd1216-b212-4bb2-9107-dec962127257, !- Sunday Schedule:Day Name
  2c3b5ebd-3111-4c17-b66e-443d69483076, !- Monday Schedule:Day Name
  263132f3-57e5-4e7f-9b16-8f6529a17f7c, !- Tuesday Schedule:Day Name
  1b73200d-bde2-4e65-af20-2fa226fcb48a, !- Wednesday Schedule:Day Name
  8635af30-c595-4629-9129-95f505b9506e, !- Thursday Schedule:Day Name
  ad4a0e78-dd8a-4dbe-b05a-ba8400d12c34, !- Friday Schedule:Day Name
  36c5c6dd-eb97-4d93-bd78-dbd075d1ee1b, !- Saturday Schedule:Day Name
  d9bd1216-b212-4bb2-9107-dec962127257, !- Holiday Schedule:Day Name
  d9bd1216-b212-4bb2-9107-dec962127257, !- SummerDesignDay Schedule:Day Name
  d9bd1216-b212-4bb2-9107-dec962127257, !- WinterDesignDay Schedule:Day Name
  d9bd1216-b212-4bb2-9107-dec962127257, !- CustomDay1 Schedule:Day Name
  d9bd1216-b212-4bb2-9107-dec962127257; !- CustomDay2 Schedule:Day Name

Schedule:Week:Daily, HeatAvail_S17_0_16,
  5111b8af-08af-4e27-b4db-bae5f85f107f, !- Sunday Schedule:Day Name
  e6003aaa-db7a-4cde-babe-521403300f0f, !- Monday Schedule:Day Name
  d42c45ce-fbda-4b08-bce1-e1fdf0205d69, !- Tuesday Schedule:Day Name
  bdf076c8-aa22-4d61-b4fc-447625afc682, !- Wednesday Schedule:Day Name
  b9d22d3b-71d2-4377-8607-78e92197aa42, !- Thursday Schedule:Day Name
  2e7f09d8-3a33-4b4e-8b59-d441d2a0bb7c, !- Friday Schedule:Day Name
  2c4de5b4-676e-43c5-8055-8066f0c48a3f, !- Saturday Schedule:Day Name
  5111b8af-08af-4e27-b4db-bae5f85f107f, !- Holiday Schedule:Day Name
  5111b8af-08af-4e27-b4db-bae5f85f107f, !- SummerDesignDay Schedule:Day Name
  5111b8af-08af-4e27-b4db-bae5f85f107f, !- WinterDesignDay Schedule:Day Name
  5111b8af-08af-4e27-b4db-bae5f85f107f, !- CustomDay1 Schedule:Day Name
  5111b8af-08af-4e27-b4db-bae5f85f107f; !- CustomDay2 Schedule:Day Name

Schedule:Week:Daily, HeatAvail_S17_0_17,
  8e029877-b215-471b-a3d8-5c1cc8bc365b, !- Sunday Schedule:Day Name
  c8cde78c-e308-450c-a688-6e47071ecba6, !- Monday Schedule:Day Name
  f87c2997-4a22-4960-99c3-c290975bd6d5, !- Tuesday Schedule:Day Name
  4f585860-18b9-4ac7-aa09-0524684b216c, !- Wednesday Schedule:Day Name
  92a99a64-2e8a-47e6-bd10-86ae4ffcd058, !- Thursday Schedule:Day Name
  a9581180-73f1-445c-b220-8a3599919bc0, !- Friday Schedule:Day Name
  ffe9693d-cba8-4656-ba5e-c0fcf7cfd1aa, !- Saturday Schedule:Day Name
  8e029877-b215-471b-a3d8-5c1cc8bc365b, !- Holiday Schedule:Day Name
  8e029877-b215-471b-a3d8-5c1cc8bc365b, !- SummerDesignDay Schedule:Day Name
  8e029877-b215-471b-a3d8-5c1cc8bc365b, !- WinterDesignDay Schedule:Day Name
  8e029877-b215-471b-a3d8-5c1cc8bc365b, !- CustomDay1 Schedule:Day Name
  8e029877-b215-471b-a3d8-5c1cc8bc365b; !- CustomDay2 Schedule:Day Name

Schedule:Week:Daily, HeatAvail_S17_0_18,
  e7d0f24e-2a79-449a-b914-825c02bf48bf, !- Sunday Schedule:Day Name
  32b8ac8a-0c12-4924-b2f7-85b381cd1c16, !- Monday Schedule:Day Name
  4b87aed5-e8ee-4a6f-b250-1005cea65da3, !- Tuesday Schedule:Day Name
  e7d0f24e-2a79-449a-b914-825c02bf48bf, !- Wednesday Schedule:Day Name
  0aaa7bcc-497a-4607-aca6-c96565fd58ed, !- Thursday Schedule:Day Name
  24cd38cf-6549-4cde-b228-82bc1c773714, !- Friday Schedule:Day Name
  93429806-64e9-4ef9-a993-53d9ea7bfa59, !- Saturday Schedule:Day Name
  e7d0f24e-2a79-449a-b914-825c02bf48bf, !- Holiday Schedule:Day Name
  e7d0f24e-2a79-449a-b914-825c02bf48bf, !- SummerDesignDay Schedule:Day Name
  e7d0f24e-2a79-449a-b914-825c02bf48bf, !- WinterDesignDay Schedule:Day Name
  e7d0f24e-2a79-449a-b914-825c02bf48bf, !- CustomDay1 Schedule:Day Name
  e7d0f24e-2a79-449a-b914-825c02bf48bf; !- CustomDay2 Schedule:Day Name

Schedule:Week:Daily, HeatAvail_S17_0_19,
  b1ad10cd-9f4f-4c01-90f3-a9fc60b02d29, !- Sunday Schedule:Day Name
  1f6dd566-09e1-4fab-9511-350aed55dfb4, !- Monday Schedule:Day Name
  993e9391-22bb-4028-8e26-d2a81c76591b, !- Tuesday Schedule:Day Name
  1cf3126f-f758-4047-aff0-bca489412336, !- Wednesday Schedule:Day Name
  39b771b2-a980-4721-9fbd-bb82bc33320a, !- Thursday Schedule:Day Name
  1fca9003-f92a-40b5-9276-8de7f9229d0e, !- Friday Schedule:Day Name
  bf69910e-302e-4d5d-8f7b-2db65928aae6, !- Saturday Schedule:Day Name
  b1ad10cd-9f4f-4c01-90f3-a9fc60b02d29, !- Holiday Schedule:Day Name
  b1ad10cd-9f4f-4c01-90f3-a9fc60b02d29, !- SummerDesignDay Schedule:Day Name
  b1ad10cd-9f4f-4c01-90f3-a9fc60b02d29, !- WinterDesignDay Schedule:Day Name
  b1ad10cd-9f4f-4c01-90f3-a9fc60b02d29, !- CustomDay1 Schedule:Day Name
  b1ad10cd-9f4f-4c01-90f3-a9fc60b02d29; !- CustomDay2 Schedule:Day Name

Schedule:Week:Daily, HeatAvail_S17_0_20,
  1ddc7ad3-d268-423d-b9ef-a5decc2562e4, !- Sunday Schedule:Day Name
  faaa7842-4c6c-4ef7-afeb-d61a35a55d33, !- Monday Schedule:Day Name
  b1ad10cd-9f4f-4c01-90f3-a9fc60b02d29, !- Tuesday Schedule:Day Name
  657eb751-9b13-44ce-9e96-2a48266ff616, !- Wednesday Schedule:Day Name
  af898841-d3d3-4b33-9f52-789d41f2738b, !- Thursday Schedule:Day Name
  fd688387-9499-4591-a57c-4b70abe1bad6, !- Friday Schedule:Day Name
  2d760525-19a6-48a2-aa2b-80dd83e4684c, !- Saturday Schedule:Day Name
  1ddc7ad3-d268-423d-b9ef-a5decc2562e4, !- Holiday Schedule:Day Name
  1ddc7ad3-d268-423d-b9ef-a5decc2562e4, !- SummerDesignDay Schedule:Day Name
  1ddc7ad3-d268-423d-b9ef-a5decc2562e4, !- WinterDesignDay Schedule:Day Name
  1ddc7ad3-d268-423d-b9ef-a5decc2562e4, !- CustomDay1 Schedule:Day Name
  1ddc7ad3-d268-423d-b9ef-a5decc2562e4; !- CustomDay2 Schedule:Day Name

Schedule:Week:Daily, HeatAvail_S17_0_21,
  674b4eaa-2aa8-4d6a-957b-2815946675b6, !- Sunday Schedule:Day Name
  73acdd30-99d9-4ef9-a6ab-29992fc131c9, !- Monday Schedule:Day Name
  88dae2dc-b2b6-483f-aad9-57490e7ec9bf, !- Tuesday Schedule:Day Name
  3e5202b2-92b1-4bd3-b872-ac2f51082082, !- Wednesday Schedule:Day Name
  5fa37d88-9791-4811-b504-9434ee3b7cc9, !- Thursday Schedule:Day Name
  bcfbfcb5-970f-4759-8ff8-104563bd61c5, !- Friday Schedule:Day Name
  9bfe587a-8cee-4c54-b5fe-e9048f15d1c4, !- Saturday Schedule:Day Name
  674b4eaa-2aa8-4d6a-957b-2815946675b6, !- Holiday Schedule:Day Name
  674b4eaa-2aa8-4d6a-957b-2815946675b6, !- SummerDesignDay Schedule:Day Name
  674b4eaa-2aa8-4d6a-957b-2815946675b6, !- WinterDesignDay Schedule:Day Name
  674b4eaa-2aa8-4d6a-957b-2815946675b6, !- CustomDay1 Schedule:Day Name
  674b4eaa-2aa8-4d6a-957b-2815946675b6; !- CustomDay2 Schedule:Day Name

Schedule:Week:Daily, HeatAvail_S17_0_22,
  84ccb1a8-6ff8-454e-a66c-c8c71aed1be8, !- Sunday Schedule:Day Name
  9c0c3f4b-d4a6-4dee-9c4d-c9b7b78d7c47, !- Monday Schedule:Day Name
  6896cc22-7d9c-40a6-8f16-9a0ea75945f6, !- Tuesday Schedule:Day Name
  62ef4096-a4e5-444d-bcbb-7f82a5c35e1a, !- Wednesday Schedule:Day Name
  2f7a5285-7309-4b83-95e1-5d5cfa6285ab, !- Thursday Schedule:Day Name
  d2f2f440-4eff-4442-9606-db8f940ce1ef, !- Friday Schedule:Day Name
  a30d819a-71b9-42c9-8859-ec36a8cf5ef9, !- Saturday Schedule:Day Name
  84ccb1a8-6ff8-454e-a66c-c8c71aed1be8, !- Holiday Schedule:Day Name
  84ccb1a8-6ff8-454e-a66c-c8c71aed1be8, !- SummerDesignDay Schedule:Day Name
  84ccb1a8-6ff8-454e-a66c-c8c71aed1be8, !- WinterDesignDay Schedule:Day Name
  84ccb1a8-6ff8-454e-a66c-c8c71aed1be8, !- CustomDay1 Schedule:Day Name
  84ccb1a8-6ff8-454e-a66c-c8c71aed1be8; !- CustomDay2 Schedule:Day Name

Schedule:Week:Daily, HeatAvail_S17_0_23,
  14c777df-a2c5-4c2f-bb9e-070d2fbe33cf, !- Sunday Schedule:Day Name
  660652b9-3721-4b41-99dc-b03b67c93e71, !- Monday Schedule:Day Name
  3b91de32-229d-44a8-aa6d-28e4ecfa2c41, !- Tuesday Schedule:Day Name
  c4d38773-d9ac-4b7a-ab6d-3e1d3619054b, !- Wednesday Schedule:Day Name
  3da5c000-3493-4a5d-90ba-b15c4c908312, !- Thursday Schedule:Day Name
  4485477b-6b4d-4f2f-af3b-db664b62b9fd, !- Friday Schedule:Day Name
  243a0351-07d0-4e53-9c2b-3f13525cdd30, !- Saturday Schedule:Day Name
  14c777df-a2c5-4c2f-bb9e-070d2fbe33cf, !- Holiday Schedule:Day Name
  14c777df-a2c5-4c2f-bb9e-070d2fbe33cf, !- SummerDesignDay Schedule:Day Name
  14c777df-a2c5-4c2f-bb9e-070d2fbe33cf, !- WinterDesignDay Schedule:Day Name
  14c777df-a2c5-4c2f-bb9e-070d2fbe33cf, !- CustomDay1 Schedule:Day Name
  14c777df-a2c5-4c2f-bb9e-070d2fbe33cf; !- CustomDay2 Schedule:Day Name

Schedule:Week:Daily, HeatAvail_S17_0_24,
  ad7e3b5e-c18f-4ffb-95a0-f826f2483b09, !- Sunday Schedule:Day Name
  28ec533d-432d-49b4-978b-de4e0cbf42eb, !- Monday Schedule:Day Name
  ba25d5d5-5386-42b3-a132-874a2e86e97f, !- Tuesday Schedule:Day Name
  ad21c7c2-1df8-489a-94d8-c8b1ac079d80, !- Wednesday Schedule:Day Name
  7ca5b782-b2c2-4ebd-9b04-9f59a634770c, !- Thursday Schedule:Day Name
  c7d08f1d-b857-4d15-bfd6-e455226b22ad, !- Friday Schedule:Day Name
  460d9812-1e10-4f3f-bbaf-33d8d5a661d0, !- Saturday Schedule:Day Name
  ad7e3b5e-c18f-4ffb-95a0-f826f2483b09, !- Holiday Schedule:Day Name
  ad7e3b5e-c18f-4ffb-95a0-f826f2483b09, !- SummerDesignDay Schedule:Day Name
  ad7e3b5e-c18f-4ffb-95a0-f826f2483b09, !- WinterDesignDay Schedule:Day Name
  ad7e3b5e-c18f-4ffb-95a0-f826f2483b09, !- CustomDay1 Schedule:Day Name
  ad7e3b5e-c18f-4ffb-95a0-f826f2483b09; !- CustomDay2 Schedule:Day Name

Schedule:Week:Daily, HeatAvail_S17_0_25,
  ef5c960d-f105-439e-8330-a7b7c658db9c, !- Sunday Schedule:Day Name
  e26bd28e-f679-40df-93e8-6b434ca271d5, !- Monday Schedule:Day Name
  a4e0b79d-80da-4a7b-8d59-48567f5602fe, !- Tuesday Schedule:Day Name
  7ea5de64-d697-454c-a98f-be79bc611366, !- Wednesday Schedule:Day Name
  a53ca86f-7009-49da-825f-5cb0102909fa, !- Thursday Schedule:Day Name
  26cfb7eb-76ab-47bc-aa42-0c9ff96b8a4d, !- Friday Schedule:Day Name
  425ba9f7-c8d1-4060-ac42-2211b0350688, !- Saturday Schedule:Day Name
  ef5c960d-f105-439e-8330-a7b7c658db9c, !- Holiday Schedule:Day Name
  ef5c960d-f105-439e-8330-a7b7c658db9c, !- SummerDesignDay Schedule:Day Name
  ef5c960d-f105-439e-8330-a7b7c658db9c, !- WinterDesignDay Schedule:Day Name
  ef5c960d-f105-439e-8330-a7b7c658db9c, !- CustomDay1 Schedule:Day Name
  ef5c960d-f105-439e-8330-a7b7c658db9c; !- CustomDay2 Schedule:Day Name

Schedule:Week:Daily, HeatAvail_S17_0_26,
  49835cdc-4148-4331-bee0-f7c8662ee433, !- Sunday Schedule:Day Name
  11256a9a-c2b2-4ac5-b30d-246abc56750b, !- Monday Schedule:Day Name
  5109f2aa-8969-47a7-9f32-6cc3f5138566, !- Tuesday Schedule:Day Name
  56ad522b-182b-490b-9b25-f45cb2f8a837, !- Wednesday Schedule:Day Name
  16d47b23-c498-49ed-9a5f-c29565e037f6, !- Thursday Schedule:Day Name
  0131145e-e660-43d2-bbe1-57789cf025ac, !- Friday Schedule:Day Name
  9288f4fb-3710-4ef5-b1e0-d82ae9ef9568, !- Saturday Schedule:Day Name
  49835cdc-4148-4331-bee0-f7c8662ee433, !- Holiday Schedule:Day Name
  49835cdc-4148-4331-bee0-f7c8662ee433, !- SummerDesignDay Schedule:Day Name
  49835cdc-4148-4331-bee0-f7c8662ee433, !- WinterDesignDay Schedule:Day Name
  49835cdc-4148-4331-bee0-f7c8662ee433, !- CustomDay1 Schedule:Day Name
  49835cdc-4148-4331-bee0-f7c8662ee433; !- CustomDay2 Schedule:Day Name

Schedule:Week:Daily, HeatAvail_S17_0_27,
  13a9b8c3-8a91-4b57-aaae-bc0171401b73, !- Sunday Schedule:Day Name
  a1009dd8-b065-4024-9c5c-a666e5a5dde4, !- Monday Schedule:Day Name
  d2cb975e-019b-47da-baad-3492641b1a29, !- Tuesday Schedule:Day Name
  f4e80c03-37c0-4f65-acb0-42164b2fc30b, !- Wednesday Schedule:Day Name
  c70578a4-4172-476c-b90b-dbb9edc7dbdc, !- Thursday Schedule:Day Name
  a4d70ece-0924-45f6-b91d-eefd13a1c80d, !- Friday Schedule:Day Name
  f782a7c3-4e24-47b9-8f29-5344f282bd47, !- Saturday Schedule:Day Name
  13a9b8c3-8a91-4b57-aaae-bc0171401b73, !- Holiday Schedule:Day Name
  13a9b8c3-8a91-4b57-aaae-bc0171401b73, !- SummerDesignDay Schedule:Day Name
  13a9b8c3-8a91-4b57-aaae-bc0171401b73, !- WinterDesignDay Schedule:Day Name
  13a9b8c3-8a91-4b57-aaae-bc0171401b73, !- CustomDay1 Schedule:Day Name
  13a9b8c3-8a91-4b57-aaae-bc0171401b73; !- CustomDay2 Schedule:Day Name

Schedule:Week:Daily, HeatAvail_S17_0_28,
  4aae5b26-c82e-4dd8-afd6-79a1854a4c24, !- Sunday Schedule:Day Name
  2845129c-7200-44b2-9073-178af05f6f7c, !- Monday Schedule:Day Name
  11dd7ce0-b4ae-4092-b44f-28a39006776f, !- Tuesday Schedule:Day Name
  59cdf5f3-626f-4c03-8f86-27c54c15e6bc, !- Wednesday Schedule:Day Name
  4f585860-18b9-4ac7-aa09-0524684b216c, !- Thursday Schedule:Day Name
  f7b1d11e-415e-40ca-a212-de9acd9689d6, !- Friday Schedule:Day Name
  674b4eaa-2aa8-4d6a-957b-2815946675b6, !- Saturday Schedule:Day Name
  4aae5b26-c82e-4dd8-afd6-79a1854a4c24, !- Holiday Schedule:Day Name
  4aae5b26-c82e-4dd8-afd6-79a1854a4c24, !- SummerDesignDay Schedule:Day Name
  4aae5b26-c82e-4dd8-afd6-79a1854a4c24, !- WinterDesignDay Schedule:Day Name
  4aae5b26-c82e-4dd8-afd6-79a1854a4c24, !- CustomDay1 Schedule:Day Name
  4aae5b26-c82e-4dd8-afd6-79a1854a4c24; !- CustomDay2 Schedule:Day Name

Schedule:Week:Daily, HeatAvail_S17_0_29,
  3dd9e6cd-de7c-4632-8e09-4da419557454, !- Sunday Schedule:Day Name
  6cf8b87a-2efc-4c8b-846c-dbd84e0dfbf2, !- Monday Schedule:Day Name
  64cbd1fc-1db1-4998-8b02-a684e0690a59, !- Tuesday Schedule:Day Name
  973136e5-7eaf-48f7-b915-6c9a37701442, !- Wednesday Schedule:Day Name
  4f585860-18b9-4ac7-aa09-0524684b216c, !- Thursday Schedule:Day Name
  4f585860-18b9-4ac7-aa09-0524684b216c, !- Friday Schedule:Day Name
  e4a2ab30-1faa-4ef8-825b-335844a9c8b1, !- Saturday Schedule:Day Name
  3dd9e6cd-de7c-4632-8e09-4da419557454, !- Holiday Schedule:Day Name
  3dd9e6cd-de7c-4632-8e09-4da419557454, !- SummerDesignDay Schedule:Day Name
  3dd9e6cd-de7c-4632-8e09-4da419557454, !- WinterDesignDay Schedule:Day Name
  3dd9e6cd-de7c-4632-8e09-4da419557454, !- CustomDay1 Schedule:Day Name
  3dd9e6cd-de7c-4632-8e09-4da419557454; !- CustomDay2 Schedule:Day Name

Schedule:Week:Daily, HeatAvail_S17_0_30,
  382cd65b-8ca2-4f2f-ae42-58c248ed6a25, !- Sunday Schedule:Day Name
  e51780fd-68b9-485c-b53b-41d4aa329173, !- Monday Schedule:Day Name
  4f1fe2c2-a220-4c87-91ab-9887e1e74f2c, !- Tuesday Schedule:Day Name
  404c002d-f548-4d23-86b3-a2114c99788d, !- Wednesday Schedule:Day Name
  2b6407cb-7b23-4944-b2f8-6b6add0085de, !- Thursday Schedule:Day Name
  7bdb7382-c11b-47d1-a991-071ec3c919f0, !- Friday Schedule:Day Name
  109da854-8c3a-4e1c-8ab1-9de36e825529, !- Saturday Schedule:Day Name
  382cd65b-8ca2-4f2f-ae42-58c248ed6a25, !- Holiday Schedule:Day Name
  382cd65b-8ca2-4f2f-ae42-58c248ed6a25, !- SummerDesignDay Schedule:Day Name
  382cd65b-8ca2-4f2f-ae42-58c248ed6a25, !- WinterDesignDay Schedule:Day Name
  382cd65b-8ca2-4f2f-ae42-58c248ed6a25, !- CustomDay1 Schedule:Day Name
  382cd65b-8ca2-4f2f-ae42-58c248ed6a25; !- CustomDay2 Schedule:Day Name

Schedule:Week:Daily, HeatAvail_S17_0_31,
  46637283-3775-4203-899c-fd808efceca8, !- Sunday Schedule:Day Name
  657eb751-9b13-44ce-9e96-2a48266ff616, !- Monday Schedule:Day Name
  64cbd1fc-1db1-4998-8b02-a684e0690a59, !- Tuesday Schedule:Day Name
  8c4d05c7-5cf0-4f0c-81c6-a955a40e5b32, !- Wednesday Schedule:Day Name
  dbd2f23c-5e40-44eb-aa9c-d96a30dcd641, !- Thursday Schedule:Day Name
  b4717505-3080-4605-921e-3500b5537a68, !- Friday Schedule:Day Name
  26ddad88-262f-4052-b9cd-acf6b78effdf, !- Saturday Schedule:Day Name
  46637283-3775-4203-899c-fd808efceca8, !- Holiday Schedule:Day Name
  46637283-3775-4203-899c-fd808efceca8, !- SummerDesignDay Schedule:Day Name
  46637283-3775-4203-899c-fd808efceca8, !- WinterDesignDay Schedule:Day Name
  46637283-3775-4203-899c-fd808efceca8, !- CustomDay1 Schedule:Day Name
  46637283-3775-4203-899c-fd808efceca8; !- CustomDay2 Schedule:Day Name

Schedule:Week:Daily, HeatAvail_S17_0_32,
  cd6e4dc1-4d21-4f61-a705-2eb9fba18fde, !- Sunday Schedule:Day Name
  125c1e64-bc49-4757-8d04-a9078fa8e63b, !- Monday Schedule:Day Name
  0a2793f6-6b94-45ca-8b08-dc81659b7e8e, !- Tuesday Schedule:Day Name
  a433db04-20cc-4a49-86f1-28c7bb3e9b04, !- Wednesday Schedule:Day Name
  c630dff6-8833-44c4-9bfd-c1adf9463294, !- Thursday Schedule:Day Name
  9304811f-a323-4f46-bbf5-8ed91a1e0ed5, !- Friday Schedule:Day Name
  26efab8f-71d1-49ac-8e6d-80e545446edc, !- Saturday Schedule:Day Name
  cd6e4dc1-4d21-4f61-a705-2eb9fba18fde, !- Holiday Schedule:Day Name
  cd6e4dc1-4d21-4f61-a705-2eb9fba18fde, !- SummerDesignDay Schedule:Day Name
  cd6e4dc1-4d21-4f61-a705-2eb9fba18fde, !- WinterDesignDay Schedule:Day Name
  cd6e4dc1-4d21-4f61-a705-2eb9fba18fde, !- CustomDay1 Schedule:Day Name
  cd6e4dc1-4d21-4f61-a705-2eb9fba18fde; !- CustomDay2 Schedule:Day Name

Schedule:Week:Daily, HeatAvail_S17_0_33,
  2763e292-c780-4388-9eb1-5602e8280f79, !- Sunday Schedule:Day Name
  04d9b4cc-3361-45ed-a605-d6ad5f25c658, !- Monday Schedule:Day Name
  96573092-6b43-42e0-a5c7-47cef951f330, !- Tuesday Schedule:Day Name
  838c61b4-e72b-4a26-b894-5ca9a22fec98, !- Wednesday Schedule:Day Name
  f44c7d43-eb63-4cbe-8a9a-e6e9b300dd86, !- Thursday Schedule:Day Name
  88dae2dc-b2b6-483f-aad9-57490e7ec9bf, !- Friday Schedule:Day Name
  4ffb8b96-8488-4462-97e4-fcb9d6916c09, !- Saturday Schedule:Day Name
  2763e292-c780-4388-9eb1-5602e8280f79, !- Holiday Schedule:Day Name
  2763e292-c780-4388-9eb1-5602e8280f79, !- SummerDesignDay Schedule:Day Name
  2763e292-c780-4388-9eb1-5602e8280f79, !- WinterDesignDay Schedule:Day Name
  2763e292-c780-4388-9eb1-5602e8280f79, !- CustomDay1 Schedule:Day Name
  2763e292-c780-4388-9eb1-5602e8280f79; !- CustomDay2 Schedule:Day Name

Schedule:Week:Daily, HeatAvail_S17_0_34,
  3732aef1-e269-4c4b-9e84-9b4ce90f3599, !- Sunday Schedule:Day Name
  131d9379-0c3a-4213-9615-08ed3ee987e3, !- Monday Schedule:Day Name
  64d2ef84-f735-40f5-848f-b84cf636545b, !- Tuesday Schedule:Day Name
  8bffd4ed-cacd-4c23-92e5-9d9dea66ee59, !- Wednesday Schedule:Day Name
  38b78c56-95b2-40a6-8eb6-abe085f8060e, !- Thursday Schedule:Day Name
  41d94b3c-f69d-4b60-9381-8accf866c43d, !- Friday Schedule:Day Name
  31bed374-725e-4fb7-96bb-4f30082a6669, !- Saturday Schedule:Day Name
  3732aef1-e269-4c4b-9e84-9b4ce90f3599, !- Holiday Schedule:Day Name
  3732aef1-e269-4c4b-9e84-9b4ce90f3599, !- SummerDesignDay Schedule:Day Name
  3732aef1-e269-4c4b-9e84-9b4ce90f3599, !- WinterDesignDay Schedule:Day Name
  3732aef1-e269-4c4b-9e84-9b4ce90f3599, !- CustomDay1 Schedule:Day Name
  3732aef1-e269-4c4b-9e84-9b4ce90f3599; !- CustomDay2 Schedule:Day Name

Schedule:Week:Daily, HeatAvail_S17_0_35,
  eca01a4c-e19c-4b26-a5e4-bcd698a1f312, !- Sunday Schedule:Day Name
  4d17fef4-ccfb-4f9b-86bf-6a31afba34bf, !- Monday Schedule:Day Name
  324a820c-9e79-4287-9929-5af24269ea02, !- Tuesday Schedule:Day Name
  1ecb58a0-4cbf-4c1c-9654-0718d4808108, !- Wednesday Schedule:Day Name
  328e2f82-dc52-4c28-ab51-245193f499f0, !- Thursday Schedule:Day Name
  581f2440-89ba-449f-95ed-24e56b724746, !- Friday Schedule:Day Name
  4505f2e5-c974-4700-b0ed-2fbd1115c669, !- Saturday Schedule:Day Name
  eca01a4c-e19c-4b26-a5e4-bcd698a1f312, !- Holiday Schedule:Day Name
  eca01a4c-e19c-4b26-a5e4-bcd698a1f312, !- SummerDesignDay Schedule:Day Name
  eca01a4c-e19c-4b26-a5e4-bcd698a1f312, !- WinterDesignDay Schedule:Day Name
  eca01a4c-e19c-4b26-a5e4-bcd698a1f312, !- CustomDay1 Schedule:Day Name
  eca01a4c-e19c-4b26-a5e4-bcd698a1f312; !- CustomDay2 Schedule:Day Name

Schedule:Week:Daily, HeatAvail_S17_0_36,
  f8703f59-7315-4c81-a6d3-daec133cf262, !- Sunday Schedule:Day Name
  1ddc7ad3-d268-423d-b9ef-a5decc2562e4, !- Monday Schedule:Day Name
  7c9d4112-4d7d-46a7-a392-567ee75c1faf, !- Tuesday Schedule:Day Name
  08cca002-0a92-48bb-98a0-a9bfe699148d, !- Wednesday Schedule:Day Name
  ad69dad0-a228-4842-8893-8c3622a09e1a, !- Thursday Schedule:Day Name
  56a7906b-8b57-4ed4-80dd-8e4b8924105c, !- Friday Schedule:Day Name
  a4e0b79d-80da-4a7b-8d59-48567f5602fe, !- Saturday Schedule:Day Name
  f8703f59-7315-4c81-a6d3-daec133cf262, !- Holiday Schedule:Day Name
  f8703f59-7315-4c81-a6d3-daec133cf262, !- SummerDesignDay Schedule:Day Name
  f8703f59-7315-4c81-a6d3-daec133cf262, !- WinterDesignDay Schedule:Day Name
  f8703f59-7315-4c81-a6d3-daec133cf262, !- CustomDay1 Schedule:Day Name
  f8703f59-7315-4c81-a6d3-daec133cf262; !- CustomDay2 Schedule:Day Name

Schedule:Week:Daily, HeatAvail_S17_0_37,
  4f585860-18b9-4ac7-aa09-0524684b216c, !- Sunday Schedule:Day Name
  35bfe634-abd5-4321-8240-e2e51131fc19, !- Monday Schedule:Day Name
  216fef4e-556d-4d45-9276-d794d4edb9d1, !- Tuesday Schedule:Day Name
  23d8341d-39d1-4cad-8210-b67dd821eae3, !- Wednesday Schedule:Day Name
  21af95f6-3f22-4c2b-8c65-aa3243ec1cda, !- Thursday Schedule:Day Name
  22a1e51b-2093-4564-b5ed-ae6a32fcb6cb, !- Friday Schedule:Day Name
  27ece69b-9f15-4565-aafb-14e8b30c6f24, !- Saturday Schedule:Day Name
  4f585860-18b9-4ac7-aa09-0524684b216c, !- Holiday Schedule:Day Name
  4f585860-18b9-4ac7-aa09-0524684b216c, !- SummerDesignDay Schedule:Day Name
  4f585860-18b9-4ac7-aa09-0524684b216c, !- WinterDesignDay Schedule:Day Name
  4f585860-18b9-4ac7-aa09-0524684b216c, !- CustomDay1 Schedule:Day Name
  4f585860-18b9-4ac7-aa09-0524684b216c; !- CustomDay2 Schedule:Day Name

Schedule:Week:Daily, HeatAvail_S17_0_38,
  38bb5bee-d901-4922-b601-fa4e0b83000a, !- Sunday Schedule:Day Name
  f10935d8-bf25-46bb-853f-70b318c561c0, !- Monday Schedule:Day Name
  f8703f59-7315-4c81-a6d3-daec133cf262, !- Tuesday Schedule:Day Name
  c55de4f9-5b5b-43f8-b345-433e33f9a284, !- Wednesday Schedule:Day Name
  16e3741b-a500-461d-a6ed-fc0679f2b8ed, !- Thursday Schedule:Day Name
  4eb27dbc-bfc3-4997-bc50-2bbe2ae7be88, !- Friday Schedule:Day Name
  5ac09ab2-beb6-4f57-9377-471444e6df28, !- Saturday Schedule:Day Name
  38bb5bee-d901-4922-b601-fa4e0b83000a, !- Holiday Schedule:Day Name
  38bb5bee-d901-4922-b601-fa4e0b83000a, !- SummerDesignDay Schedule:Day Name
  38bb5bee-d901-4922-b601-fa4e0b83000a, !- WinterDesignDay Schedule:Day Name
  38bb5bee-d901-4922-b601-fa4e0b83000a, !- CustomDay1 Schedule:Day Name
  38bb5bee-d901-4922-b601-fa4e0b83000a; !- CustomDay2 Schedule:Day Name

Schedule:Week:Daily, HeatAvail_S17_0_39,
  d9334854-d197-4658-af41-34ca6e427bc2, !- Sunday Schedule:Day Name
  e0120a70-5495-43e2-bb04-d85c7344809b, !- Monday Schedule:Day Name
  a1530b9f-aa9a-44a0-9089-bc16a00b669e, !- Tuesday Schedule:Day Name
  b80e21ad-0aa0-476b-a39c-7dbb701e5039, !- Wednesday Schedule:Day Name
  c9460a58-7f65-499f-93ef-bf7f84d4d2b7, !- Thursday Schedule:Day Name
  3c9a2343-97bf-4438-bbac-0b0613b5cb3d, !- Friday Schedule:Day Name
  4f585860-18b9-4ac7-aa09-0524684b216c, !- Saturday Schedule:Day Name
  d9334854-d197-4658-af41-34ca6e427bc2, !- Holiday Schedule:Day Name
  d9334854-d197-4658-af41-34ca6e427bc2, !- SummerDesignDay Schedule:Day Name
  d9334854-d197-4658-af41-34ca6e427bc2, !- WinterDesignDay Schedule:Day Name
  d9334854-d197-4658-af41-34ca6e427bc2, !- CustomDay1 Schedule:Day Name
  d9334854-d197-4658-af41-34ca6e427bc2; !- CustomDay2 Schedule:Day Name

Schedule:Week:Daily, HeatAvail_S17_0_40,
  973136e5-7eaf-48f7-b915-6c9a37701442, !- Sunday Schedule:Day Name
  ba165f2a-0a90-41e4-92a6-d02a0a46b943, !- Monday Schedule:Day Name
  26ee9eff-1623-47c5-839f-52054b0ed0af, !- Tuesday Schedule:Day Name
  735f1e76-030f-4e2a-a5f5-b0a8f4907394, !- Wednesday Schedule:Day Name
  128f470d-150a-4e7b-ae07-43f4f1eff838, !- Thursday Schedule:Day Name
  791541ee-b5a6-415e-91e9-6991e1c80c7a, !- Friday Schedule:Day Name
  e5c722e7-6da8-4bbe-804a-78448155b7ed, !- Saturday Schedule:Day Name
  973136e5-7eaf-48f7-b915-6c9a37701442, !- Holiday Schedule:Day Name
  973136e5-7eaf-48f7-b915-6c9a37701442, !- SummerDesignDay Schedule:Day Name
  973136e5-7eaf-48f7-b915-6c9a37701442, !- WinterDesignDay Schedule:Day Name
  973136e5-7eaf-48f7-b915-6c9a37701442, !- CustomDay1 Schedule:Day Name
  973136e5-7eaf-48f7-b915-6c9a37701442; !- CustomDay2 Schedule:Day Name

Schedule:Week:Daily, HeatAvail_S17_0_41,
  6feb05bb-3b47-4e1a-a18e-e1cbfe3bb0fd, !- Sunday Schedule:Day Name
  64400c93-05fa-4272-b678-8e14fcb98c33, !- Monday Schedule:Day Name
  ed0dcf7f-ad70-4942-9c09-dba42210d571, !- Tuesday Schedule:Day Name
  8b65e0a5-b0e8-41a0-8c55-46b98c72f420, !- Wednesday Schedule:Day Name
  747f836d-5fa0-4766-9935-bec713b8a2cf, !- Thursday Schedule:Day Name
  35819b10-d477-4c47-b0b5-ca36da1a74a7, !- Friday Schedule:Day Name
  a60063e1-1796-485a-95ae-76ba7a375841, !- Saturday Schedule:Day Name
  6feb05bb-3b47-4e1a-a18e-e1cbfe3bb0fd, !- Holiday Schedule:Day Name
  6feb05bb-3b47-4e1a-a18e-e1cbfe3bb0fd, !- SummerDesignDay Schedule:Day Name
  6feb05bb-3b47-4e1a-a18e-e1cbfe3bb0fd, !- WinterDesignDay Schedule:Day Name
  6feb05bb-3b47-4e1a-a18e-e1cbfe3bb0fd, !- CustomDay1 Schedule:Day Name
  6feb05bb-3b47-4e1a-a18e-e1cbfe3bb0fd; !- CustomDay2 Schedule:Day Name

Schedule:Week:Daily, HeatAvail_S17_0_42,
  6365fd77-f3b6-4dce-b616-1bd741a7593f, !- Sunday Schedule:Day Name
  b9fda6bb-e24d-488c-892a-f10f506fc230, !- Monday Schedule:Day Name
  82558eb8-a907-4d96-bfc2-141b1edff7b8, !- Tuesday Schedule:Day Name
  199bd7b1-b331-4ea2-9c2b-c964a8bbb985, !- Wednesday Schedule:Day Name
  f92b5ace-c104-4eec-8cf6-22f32ade0833, !- Thursday Schedule:Day Name
  eaceb619-25f8-4c61-944b-39e37ccd661c, !- Friday Schedule:Day Name
  defd7e23-ccfe-4ff6-ae0f-768495bc4423, !- Saturday Schedule:Day Name
  6365fd77-f3b6-4dce-b616-1bd741a7593f, !- Holiday Schedule:Day Name
  6365fd77-f3b6-4dce-b616-1bd741a7593f, !- SummerDesignDay Schedule:Day Name
  6365fd77-f3b6-4dce-b616-1bd741a7593f, !- WinterDesignDay Schedule:Day Name
  6365fd77-f3b6-4dce-b616-1bd741a7593f, !- CustomDay1 Schedule:Day Name
  6365fd77-f3b6-4dce-b616-1bd741a7593f; !- CustomDay2 Schedule:Day Name

Schedule:Week:Daily, HeatAvail_S17_0_43,
  51a67dad-ee02-442a-8bdc-920b9719b10e, !- Sunday Schedule:Day Name
  4b54abea-f727-42e1-922a-d229dd492388, !- Monday Schedule:Day Name
  5055d847-8683-4ed0-87d4-19b96ef13de3, !- Tuesday Schedule:Day Name
  04c42399-f9f3-47a2-a6ce-dd65ae4d9d1c, !- Wednesday Schedule:Day Name
  a42c647a-e62e-409e-87df-b8050869f66e, !- Thursday Schedule:Day Name
  c5ca1a3e-0cff-478c-a2a6-9b24cfcff8fa, !- Friday Schedule:Day Name
  0ca41cd6-8cb8-45e8-9b24-2fefdcedf8ac, !- Saturday Schedule:Day Name
  51a67dad-ee02-442a-8bdc-920b9719b10e, !- Holiday Schedule:Day Name
  51a67dad-ee02-442a-8bdc-920b9719b10e, !- SummerDesignDay Schedule:Day Name
  51a67dad-ee02-442a-8bdc-920b9719b10e, !- WinterDesignDay Schedule:Day Name
  51a67dad-ee02-442a-8bdc-920b9719b10e, !- CustomDay1 Schedule:Day Name
  51a67dad-ee02-442a-8bdc-920b9719b10e; !- CustomDay2 Schedule:Day Name

Schedule:Week:Daily, HeatAvail_S17_0_44,
  12dceb46-d6db-4599-9b63-a6f514dc4f92, !- Sunday Schedule:Day Name
  878d5cbf-7b98-4252-a014-d4995158d2dc, !- Monday Schedule:Day Name
  7e2dd2c3-aa8a-4bdb-822a-83a93267469c, !- Tuesday Schedule:Day Name
  005e9998-0b35-42f6-a249-7a2c13225b52, !- Wednesday Schedule:Day Name
  00145504-8680-4e78-97fe-220fc942b377, !- Thursday Schedule:Day Name
  bb9c41be-61c1-4ebd-bf29-762ad8a061f1, !- Friday Schedule:Day Name
  51d52436-b71f-4e46-99ec-c6f1f2ebe9eb, !- Saturday Schedule:Day Name
  12dceb46-d6db-4599-9b63-a6f514dc4f92, !- Holiday Schedule:Day Name
  12dceb46-d6db-4599-9b63-a6f514dc4f92, !- SummerDesignDay Schedule:Day Name
  12dceb46-d6db-4599-9b63-a6f514dc4f92, !- WinterDesignDay Schedule:Day Name
  12dceb46-d6db-4599-9b63-a6f514dc4f92, !- CustomDay1 Schedule:Day Name
  12dceb46-d6db-4599-9b63-a6f514dc4f92; !- CustomDay2 Schedule:Day Name

Schedule:Week:Daily, HeatAvail_S17_0_45,
  57295fca-58e6-4d14-8e2b-0a7e50582ef8, !- Sunday Schedule:Day Name
  e51780fd-68b9-485c-b53b-41d4aa329173, !- Monday Schedule:Day Name
  0416ab25-20df-4614-b3f5-29b9eaf4fa9c, !- Tuesday Schedule:Day Name
  48f227b6-837a-4e3a-a835-452beb52d8a7, !- Wednesday Schedule:Day Name
  a1530b9f-aa9a-44a0-9089-bc16a00b669e, !- Thursday Schedule:Day Name
  8398727b-d2d4-4ee7-96ab-770dfcc77527, !- Friday Schedule:Day Name
  57295fca-58e6-4d14-8e2b-0a7e50582ef8, !- Saturday Schedule:Day Name
  57295fca-58e6-4d14-8e2b-0a7e50582ef8, !- Holiday Schedule:Day Name
  57295fca-58e6-4d14-8e2b-0a7e50582ef8, !- SummerDesignDay Schedule:Day Name
  57295fca-58e6-4d14-8e2b-0a7e50582ef8, !- WinterDesignDay Schedule:Day Name
  57295fca-58e6-4d14-8e2b-0a7e50582ef8, !- CustomDay1 Schedule:Day Name
  57295fca-58e6-4d14-8e2b-0a7e50582ef8; !- CustomDay2 Schedule:Day Name

Schedule:Week:Daily, HeatAvail_S17_0_46,
  47a75b71-2e69-4fe2-a5c7-3ae50deb6071, !- Sunday Schedule:Day Name
  b9fda6bb-e24d-488c-892a-f10f506fc230, !- Monday Schedule:Day Name
  2fa0508f-e059-4897-9b0f-80327699850d, !- Tuesday Schedule:Day Name
  fd7cf928-6442-4257-bec3-316041faf432, !- Wednesday Schedule:Day Name
  75772aa4-2169-4592-a0ce-d46cc9314986, !- Thursday Schedule:Day Name
  8cb39c06-89f5-4c77-a42c-1a61433c71ff, !- Friday Schedule:Day Name
  663d472e-7db6-4866-81e9-152baca2bb5c, !- Saturday Schedule:Day Name
  47a75b71-2e69-4fe2-a5c7-3ae50deb6071, !- Holiday Schedule:Day Name
  47a75b71-2e69-4fe2-a5c7-3ae50deb6071, !- SummerDesignDay Schedule:Day Name
  47a75b71-2e69-4fe2-a5c7-3ae50deb6071, !- WinterDesignDay Schedule:Day Name
  47a75b71-2e69-4fe2-a5c7-3ae50deb6071, !- CustomDay1 Schedule:Day Name
  47a75b71-2e69-4fe2-a5c7-3ae50deb6071; !- CustomDay2 Schedule:Day Name

Schedule:Week:Daily, HeatAvail_S17_0_47,
  38dbcb10-f1b6-49db-bbaf-37d28275cd1c, !- Sunday Schedule:Day Name
  fdf7142b-0f27-49ab-9552-cca525c0e781, !- Monday Schedule:Day Name
  630cffc9-27a1-4e7d-83ad-e732c21bbedd, !- Tuesday Schedule:Day Name
  f487e253-3329-4cee-a2fa-59b6e56d3a6b, !- Wednesday Schedule:Day Name
  b786cea4-8290-486e-a954-83d6796b3456, !- Thursday Schedule:Day Name
  c1f9b941-a352-4496-bdbd-2463ed4b9ab1, !- Friday Schedule:Day Name
  14a5ef99-5643-4d80-b06d-e77d933fda5a, !- Saturday Schedule:Day Name
  38dbcb10-f1b6-49db-bbaf-37d28275cd1c, !- Holiday Schedule:Day Name
  38dbcb10-f1b6-49db-bbaf-37d28275cd1c, !- SummerDesignDay Schedule:Day Name
  38dbcb10-f1b6-49db-bbaf-37d28275cd1c, !- WinterDesignDay Schedule:Day Name
  38dbcb10-f1b6-49db-bbaf-37d28275cd1c, !- CustomDay1 Schedule:Day Name
  38dbcb10-f1b6-49db-bbaf-37d28275cd1c; !- CustomDay2 Schedule:Day Name

Schedule:Week:Daily, HeatAvail_S17_0_48,
  50720eca-4dd0-476f-8dff-f0b3ebfa9f6c, !- Sunday Schedule:Day Name
  da0e3314-0b5b-406d-a1a1-5f33ee1c906a, !- Monday Schedule:Day Name
  89d1df51-448f-4462-a08b-a69803267a3f, !- Tuesday Schedule:Day Name
  9537ff6e-2588-4ef4-bda1-aa409aab7af1, !- Wednesday Schedule:Day Name
  f997d1c3-8c63-48e1-9552-ac3661c0fc7b, !- Thursday Schedule:Day Name
  39d59c97-67c6-4e2d-89ef-b1364d21566c, !- Friday Schedule:Day Name
  667c9cc7-522e-4738-a714-b7071c24d97f, !- Saturday Schedule:Day Name
  50720eca-4dd0-476f-8dff-f0b3ebfa9f6c, !- Holiday Schedule:Day Name
  50720eca-4dd0-476f-8dff-f0b3ebfa9f6c, !- SummerDesignDay Schedule:Day Name
  50720eca-4dd0-476f-8dff-f0b3ebfa9f6c, !- WinterDesignDay Schedule:Day Name
  50720eca-4dd0-476f-8dff-f0b3ebfa9f6c, !- CustomDay1 Schedule:Day Name
  50720eca-4dd0-476f-8dff-f0b3ebfa9f6c; !- CustomDay2 Schedule:Day Name

Schedule:Week:Daily, HeatAvail_S17_0_49,
  3d4f4472-d5aa-4ad2-8443-198db121f422, !- Sunday Schedule:Day Name
  180a5d12-98d8-4e0e-8838-d87546300336, !- Monday Schedule:Day Name
  3dd4e555-544e-4cd9-a547-b05d940d0038, !- Tuesday Schedule:Day Name
  563d61ce-fd75-496c-a24e-29445ff1effa, !- Wednesday Schedule:Day Name
  90f94ff6-ae47-4445-b2b6-431759312e56, !- Thursday Schedule:Day Name
  b1dc7f95-afd8-4535-baa3-e8295b537215, !- Friday Schedule:Day Name
  c309f14e-1ec3-436f-900e-69d25bdd1ce4, !- Saturday Schedule:Day Name
  3d4f4472-d5aa-4ad2-8443-198db121f422, !- Holiday Schedule:Day Name
  3d4f4472-d5aa-4ad2-8443-198db121f422, !- SummerDesignDay Schedule:Day Name
  3d4f4472-d5aa-4ad2-8443-198db121f422, !- WinterDesignDay Schedule:Day Name
  3d4f4472-d5aa-4ad2-8443-198db121f422, !- CustomDay1 Schedule:Day Name
  3d4f4472-d5aa-4ad2-8443-198db121f422; !- CustomDay2 Schedule:Day Name

Schedule:Week:Daily, HeatAvail_S17_0_50,
  f97f1995-aca2-4397-8431-f280c087ddb5, !- Sunday Schedule:Day Name
  26ee9eff-1623-47c5-839f-52054b0ed0af, !- Monday Schedule:Day Name
  1cdd53bd-e8d3-461e-bf4f-7a00374b1e25, !- Tuesday Schedule:Day Name
  24c2b1cc-3ca4-4dbe-b3a6-4996508fb32a, !- Wednesday Schedule:Day Name
  f8345422-929e-4881-9798-eaf8d1b45efc, !- Thursday Schedule:Day Name
  e1745905-e496-4db8-a954-e6b1f3073ce5, !- Friday Schedule:Day Name
  5bc440fc-95c4-4d35-92ac-8eced93f7308, !- Saturday Schedule:Day Name
  f97f1995-aca2-4397-8431-f280c087ddb5, !- Holiday Schedule:Day Name
  f97f1995-aca2-4397-8431-f280c087ddb5, !- SummerDesignDay Schedule:Day Name
  f97f1995-aca2-4397-8431-f280c087ddb5, !- WinterDesignDay Schedule:Day Name
  f97f1995-aca2-4397-8431-f280c087ddb5, !- CustomDay1 Schedule:Day Name
  f97f1995-aca2-4397-8431-f280c087ddb5; !- CustomDay2 Schedule:Day Name

Schedule:Week:Daily, HeatAvail_S17_0_51,
  5feac57b-c063-4623-b02a-96e1fc21173a, !- Sunday Schedule:Day Name
  cde5ef60-73dc-492f-9a8e-d230d940041c, !- Monday Schedule:Day Name
  dfd9d9d8-d60e-4dc5-b3ef-316737d7fdbc, !- Tuesday Schedule:Day Name
  6f84943a-9580-48f6-abb5-16b5c14ebb8c, !- Wednesday Schedule:Day Name
  96cc1cfd-33e8-48a0-ac5d-2f14c5bfd822, !- Thursday Schedule:Day Name
  a72a09e1-d220-4f93-bfda-8aa8ce1d154c, !- Friday Schedule:Day Name
  b4717505-3080-4605-921e-3500b5537a68, !- Saturday Schedule:Day Name
  5feac57b-c063-4623-b02a-96e1fc21173a, !- Holiday Schedule:Day Name
  5feac57b-c063-4623-b02a-96e1fc21173a, !- SummerDesignDay Schedule:Day Name
  5feac57b-c063-4623-b02a-96e1fc21173a, !- WinterDesignDay Schedule:Day Name
  5feac57b-c063-4623-b02a-96e1fc21173a, !- CustomDay1 Schedule:Day Name
  5feac57b-c063-4623-b02a-96e1fc21173a; !- CustomDay2 Schedule:Day Name

Schedule:Week:Daily, HeatAvail_S17_0_52,
  e05a56ec-6aa4-4702-90d9-f841ebf66855, !- Sunday Schedule:Day Name
  e05a56ec-6aa4-4702-90d9-f841ebf66855, !- Monday Schedule:Day Name
  e05a56ec-6aa4-4702-90d9-f841ebf66855, !- Tuesday Schedule:Day Name
  e05a56ec-6aa4-4702-90d9-f841ebf66855, !- Wednesday Schedule:Day Name
  e05a56ec-6aa4-4702-90d9-f841ebf66855, !- Thursday Schedule:Day Name
  e05a56ec-6aa4-4702-90d9-f841ebf66855, !- Friday Schedule:Day Name
  e05a56ec-6aa4-4702-90d9-f841ebf66855, !- Saturday Schedule:Day Name
  e05a56ec-6aa4-4702-90d9-f841ebf66855, !- Holiday Schedule:Day Name
  e05a56ec-6aa4-4702-90d9-f841ebf66855, !- SummerDesignDay Schedule:Day Name
  e05a56ec-6aa4-4702-90d9-f841ebf66855, !- WinterDesignDay Schedule:Day Name
  e05a56ec-6aa4-4702-90d9-f841ebf66855, !- CustomDay1 Schedule:Day Name
  e05a56ec-6aa4-4702-90d9-f841ebf66855; !- CustomDay2 Schedule:Day Name


Schedule:Year,CoolAvail_S17_0,
Fraction,
CoolAvail_S17_0_0,1,1,1,7, 
CoolAvail_S17_0_1,1,8,1,14, 
CoolAvail_S17_0_2,1,15,1,21, 
CoolAvail_S17_0_3,1,22,1,28, 
CoolAvail_S17_0_4,1,29,2,4, 
CoolAvail_S17_0_5,2,5,2,11, 
CoolAvail_S17_0_6,2,12,2,18, 
CoolAvail_S17_0_7,2,19,2,25, 
CoolAvail_S17_0_8,2,26,3,4, 
CoolAvail_S17_0_9,3,5,3,11, 
CoolAvail_S17_0_10,3,12,3,18, 
CoolAvail_S17_0_11,3,19,3,25, 
CoolAvail_S17_0_12,3,26,4,1, 
CoolAvail_S17_0_13,4,2,4,8, 
CoolAvail_S17_0_14,4,9,4,15, 
CoolAvail_S17_0_15,4,16,4,22, 
CoolAvail_S17_0_16,4,23,4,29, 
CoolAvail_S17_0_17,4,30,5,6, 
CoolAvail_S17_0_18,5,7,5,13, 
CoolAvail_S17_0_19,5,14,5,20, 
CoolAvail_S17_0_20,5,21,5,27, 
CoolAvail_S17_0_21,5,28,6,3, 
CoolAvail_S17_0_22,6,4,6,10, 
CoolAvail_S17_0_23,6,11,6,17, 
CoolAvail_S17_0_24,6,18,6,24, 
CoolAvail_S17_0_25,6,25,7,1, 
CoolAvail_S17_0_26,7,2,7,8, 
CoolAvail_S17_0_27,7,9,7,15, 
CoolAvail_S17_0_28,7,16,7,22, 
CoolAvail_S17_0_29,7,23,7,29, 
CoolAvail_S17_0_30,7,30,8,5, 
CoolAvail_S17_0_31,8,6,8,12, 
CoolAvail_S17_0_32,8,13,8,19, 
CoolAvail_S17_0_33,8,20,8,26, 
CoolAvail_S17_0_34,8,27,9,2, 
CoolAvail_S17_0_35,9,3,9,9, 
CoolAvail_S17_0_36,9,10,9,16, 
CoolAvail_S17_0_37,9,17,9,23, 
CoolAvail_S17_0_38,9,24,9,30, 
CoolAvail_S17_0_39,10,1,10,7, 
CoolAvail_S17_0_40,10,8,10,14, 
CoolAvail_S17_0_41,10,15,10,21, 
CoolAvail_S17_0_42,10,22,10,28, 
CoolAvail_S17_0_43,10,29,11,4, 
CoolAvail_S17_0_44,11,5,11,11, 
CoolAvail_S17_0_45,11,12,11,18, 
CoolAvail_S17_0_46,11,19,11,25, 
CoolAvail_S17_0_47,11,26,12,2, 
CoolAvail_S17_0_48,12,3,12,9, 
CoolAvail_S17_0_49,12,10,12,16, 
CoolAvail_S17_0_50,12,17,12,23, 
CoolAvail_S17_0_51,12,24,12,30, 
CoolAvail_S17_0_52,12,31,12,31;

Schedule:Week:Daily, CoolAvail_S17_0_0,
  35e0ada2-1fee-451a-872b-049bc328d088, !- Sunday Schedule:Day Name
  22a1e51b-2093-4564-b5ed-ae6a32fcb6cb, !- Monday Schedule:Day Name
  18ce9471-8bdb-489d-965b-bcdf2857541a, !- Tuesday Schedule:Day Name
  93c71081-cbe4-4eb5-9f3c-f12a02c83db0, !- Wednesday Schedule:Day Name
  1f044a77-4373-4b65-9cfa-418fe716a1c5, !- Thursday Schedule:Day Name
  e560b093-007b-4360-b31a-7a0bf4edafff, !- Friday Schedule:Day Name
  1ec8c980-b02c-47a4-9524-b203a8ab2c3e, !- Saturday Schedule:Day Name
  35e0ada2-1fee-451a-872b-049bc328d088, !- Holiday Schedule:Day Name
  35e0ada2-1fee-451a-872b-049bc328d088, !- SummerDesignDay Schedule:Day Name
  35e0ada2-1fee-451a-872b-049bc328d088, !- WinterDesignDay Schedule:Day Name
  35e0ada2-1fee-451a-872b-049bc328d088, !- CustomDay1 Schedule:Day Name
  35e0ada2-1fee-451a-872b-049bc328d088; !- CustomDay2 Schedule:Day Name

Schedule:Week:Daily, CoolAvail_S17_0_1,
  324a820c-9e79-4287-9929-5af24269ea02, !- Sunday Schedule:Day Name
  d2bd790c-733a-41eb-a348-2e58957206cc, !- Monday Schedule:Day Name
  b5ea207a-2cc6-4af2-9c60-944d1f007baf, !- Tuesday Schedule:Day Name
  0fb9e873-759a-4ed1-94f3-fcd0b80e411f, !- Wednesday Schedule:Day Name
  51f0ba7f-1edf-4522-935d-482393d8bc4a, !- Thursday Schedule:Day Name
  c8a7d920-df9d-4fb4-8e97-aad656506ff0, !- Friday Schedule:Day Name
  bfbfc2df-fa15-438a-b2dd-40b7ea6d6a0b, !- Saturday Schedule:Day Name
  324a820c-9e79-4287-9929-5af24269ea02, !- Holiday Schedule:Day Name
  324a820c-9e79-4287-9929-5af24269ea02, !- SummerDesignDay Schedule:Day Name
  324a820c-9e79-4287-9929-5af24269ea02, !- WinterDesignDay Schedule:Day Name
  324a820c-9e79-4287-9929-5af24269ea02, !- CustomDay1 Schedule:Day Name
  324a820c-9e79-4287-9929-5af24269ea02; !- CustomDay2 Schedule:Day Name

Schedule:Week:Daily, CoolAvail_S17_0_2,
  c1428ebc-0e65-48db-aa2f-6f1fb31db145, !- Sunday Schedule:Day Name
  ce9b52fa-82e4-48d7-84cb-e3e2f4bd7fa5, !- Monday Schedule:Day Name
  51f0ba7f-1edf-4522-935d-482393d8bc4a, !- Tuesday Schedule:Day Name
  281b3a77-3921-41c9-87cf-cd3cf9a1d6b3, !- Wednesday Schedule:Day Name
  22a1e51b-2093-4564-b5ed-ae6a32fcb6cb, !- Thursday Schedule:Day Name
  d03e1a2a-7fdf-4387-9508-896c8563ea3d, !- Friday Schedule:Day Name
  cbcab192-8069-4d34-910e-4223db92558d, !- Saturday Schedule:Day Name
  c1428ebc-0e65-48db-aa2f-6f1fb31db145, !- Holiday Schedule:Day Name
  c1428ebc-0e65-48db-aa2f-6f1fb31db145, !- SummerDesignDay Schedule:Day Name
  c1428ebc-0e65-48db-aa2f-6f1fb31db145, !- WinterDesignDay Schedule:Day Name
  c1428ebc-0e65-48db-aa2f-6f1fb31db145, !- CustomDay1 Schedule:Day Name
  c1428ebc-0e65-48db-aa2f-6f1fb31db145; !- CustomDay2 Schedule:Day Name

Schedule:Week:Daily, CoolAvail_S17_0_3,
  3374cfcf-e8ca-42e8-9193-67e36cd658cd, !- Sunday Schedule:Day Name
  9dc2f2c1-899f-4b0a-b792-ac2eeb1a4e6c, !- Monday Schedule:Day Name
  13054b51-3002-4484-aeba-b371d14d3692, !- Tuesday Schedule:Day Name
  b5e365fb-09dc-4d87-84ea-0cbd151cd866, !- Wednesday Schedule:Day Name
  019be431-dead-44d3-b7ce-a45f448d86cd, !- Thursday Schedule:Day Name
  35e0ada2-1fee-451a-872b-049bc328d088, !- Friday Schedule:Day Name
  ebf59084-486f-4765-8e31-6ab24806cde4, !- Saturday Schedule:Day Name
  3374cfcf-e8ca-42e8-9193-67e36cd658cd, !- Holiday Schedule:Day Name
  3374cfcf-e8ca-42e8-9193-67e36cd658cd, !- SummerDesignDay Schedule:Day Name
  3374cfcf-e8ca-42e8-9193-67e36cd658cd, !- WinterDesignDay Schedule:Day Name
  3374cfcf-e8ca-42e8-9193-67e36cd658cd, !- CustomDay1 Schedule:Day Name
  3374cfcf-e8ca-42e8-9193-67e36cd658cd; !- CustomDay2 Schedule:Day Name

Schedule:Week:Daily, CoolAvail_S17_0_4,
  033443dd-be0d-481a-aa45-34e2afabf295, !- Sunday Schedule:Day Name
  b004ddaf-2958-4d42-bbfd-c34962752437, !- Monday Schedule:Day Name
  3118f7e2-22ff-41b2-8baa-8cf338a4d165, !- Tuesday Schedule:Day Name
  76cfda5b-3bcf-4091-91b8-c7317ff53b3f, !- Wednesday Schedule:Day Name
  dbd1f11d-7d18-4399-a402-b57c5d01dad8, !- Thursday Schedule:Day Name
  5d715e94-220a-4c54-8f28-ad7d20c66552, !- Friday Schedule:Day Name
  b004ddaf-2958-4d42-bbfd-c34962752437, !- Saturday Schedule:Day Name
  033443dd-be0d-481a-aa45-34e2afabf295, !- Holiday Schedule:Day Name
  033443dd-be0d-481a-aa45-34e2afabf295, !- SummerDesignDay Schedule:Day Name
  033443dd-be0d-481a-aa45-34e2afabf295, !- WinterDesignDay Schedule:Day Name
  033443dd-be0d-481a-aa45-34e2afabf295, !- CustomDay1 Schedule:Day Name
  033443dd-be0d-481a-aa45-34e2afabf295; !- CustomDay2 Schedule:Day Name

Schedule:Week:Daily, CoolAvail_S17_0_5,
  037c2644-b41a-454e-919a-2fa64f1a5a72, !- Sunday Schedule:Day Name
  73acdd30-99d9-4ef9-a6ab-29992fc131c9, !- Monday Schedule:Day Name
  443bf915-bfa2-47cc-84e2-2f654a24a71c, !- Tuesday Schedule:Day Name
  0c0459a7-d2ea-4bfe-a1a3-77e345ad8887, !- Wednesday Schedule:Day Name
  d0d65797-fe6b-4387-b5c4-f17f0428ef62, !- Thursday Schedule:Day Name
  4ca48648-d144-4590-a357-3cf62a8bad81, !- Friday Schedule:Day Name
  6e51a55f-234d-41a8-9913-cb78d502f61b, !- Saturday Schedule:Day Name
  037c2644-b41a-454e-919a-2fa64f1a5a72, !- Holiday Schedule:Day Name
  037c2644-b41a-454e-919a-2fa64f1a5a72, !- SummerDesignDay Schedule:Day Name
  037c2644-b41a-454e-919a-2fa64f1a5a72, !- WinterDesignDay Schedule:Day Name
  037c2644-b41a-454e-919a-2fa64f1a5a72, !- CustomDay1 Schedule:Day Name
  037c2644-b41a-454e-919a-2fa64f1a5a72; !- CustomDay2 Schedule:Day Name

Schedule:Week:Daily, CoolAvail_S17_0_6,
  6bc8c13f-a8d4-4816-8eb9-3ad649a8b2f3, !- Sunday Schedule:Day Name
  154ac6fe-8fb9-4f76-a37d-10a1e5069a27, !- Monday Schedule:Day Name
  5bef0665-6dfe-4b99-a0bc-786cea2c9cba, !- Tuesday Schedule:Day Name
  2f96a23a-caca-4fab-84d7-b9a738102c7e, !- Wednesday Schedule:Day Name
  bd2db91d-8010-46a7-ae1e-aebfe4473f82, !- Thursday Schedule:Day Name
  673fec01-a229-454e-ac97-ad268db4b5e5, !- Friday Schedule:Day Name
  328e2f82-dc52-4c28-ab51-245193f499f0, !- Saturday Schedule:Day Name
  6bc8c13f-a8d4-4816-8eb9-3ad649a8b2f3, !- Holiday Schedule:Day Name
  6bc8c13f-a8d4-4816-8eb9-3ad649a8b2f3, !- SummerDesignDay Schedule:Day Name
  6bc8c13f-a8d4-4816-8eb9-3ad649a8b2f3, !- WinterDesignDay Schedule:Day Name
  6bc8c13f-a8d4-4816-8eb9-3ad649a8b2f3, !- CustomDay1 Schedule:Day Name
  6bc8c13f-a8d4-4816-8eb9-3ad649a8b2f3; !- CustomDay2 Schedule:Day Name

Schedule:Week:Daily, CoolAvail_S17_0_7,
  64b10d7a-e558-4ecf-9322-4c9a06b41c83, !- Sunday Schedule:Day Name
  b964e233-350c-48eb-b771-c4b9956ab54b, !- Monday Schedule:Day Name
  036865c2-b0aa-43ea-a3ae-c8f8331be7ac, !- Tuesday Schedule:Day Name
  daed71a7-0610-444b-b81c-b24dffd950f6, !- Wednesday Schedule:Day Name
  fbaf94e2-5723-47b8-90b1-441a046a4278, !- Thursday Schedule:Day Name
  8228bc38-434b-4133-9937-87d82ad577f0, !- Friday Schedule:Day Name
  b951dc44-e536-41f1-b4d8-aab17108d7f9, !- Saturday Schedule:Day Name
  64b10d7a-e558-4ecf-9322-4c9a06b41c83, !- Holiday Schedule:Day Name
  64b10d7a-e558-4ecf-9322-4c9a06b41c83, !- SummerDesignDay Schedule:Day Name
  64b10d7a-e558-4ecf-9322-4c9a06b41c83, !- WinterDesignDay Schedule:Day Name
  64b10d7a-e558-4ecf-9322-4c9a06b41c83, !- CustomDay1 Schedule:Day Name
  64b10d7a-e558-4ecf-9322-4c9a06b41c83; !- CustomDay2 Schedule:Day Name

Schedule:Week:Daily, CoolAvail_S17_0_8,
  104cd10c-28f3-48c2-aed0-745cf36fea65, !- Sunday Schedule:Day Name
  d6b4219d-073c-4d59-80b7-35fc61c1e207, !- Monday Schedule:Day Name
  401568ae-5745-4f16-bda9-d9aedd726401, !- Tuesday Schedule:Day Name
  49ce4846-11b3-4de5-90ef-fc16ec9d5b6d, !- Wednesday Schedule:Day Name
  fcde42c5-a226-4b21-a0d2-13213f855b12, !- Thursday Schedule:Day Name
  542cb977-cef9-4e33-8f3a-5abd994fb8eb, !- Friday Schedule:Day Name
  e51780fd-68b9-485c-b53b-41d4aa329173, !- Saturday Schedule:Day Name
  104cd10c-28f3-48c2-aed0-745cf36fea65, !- Holiday Schedule:Day Name
  104cd10c-28f3-48c2-aed0-745cf36fea65, !- SummerDesignDay Schedule:Day Name
  104cd10c-28f3-48c2-aed0-745cf36fea65, !- WinterDesignDay Schedule:Day Name
  104cd10c-28f3-48c2-aed0-745cf36fea65, !- CustomDay1 Schedule:Day Name
  104cd10c-28f3-48c2-aed0-745cf36fea65; !- CustomDay2 Schedule:Day Name

Schedule:Week:Daily, CoolAvail_S17_0_9,
  84655766-7118-4a80-a644-6c94a8cf6aa8, !- Sunday Schedule:Day Name
  f23e91b1-e21c-4567-9c25-f2b87eda8942, !- Monday Schedule:Day Name
  e51780fd-68b9-485c-b53b-41d4aa329173, !- Tuesday Schedule:Day Name
  2cbaec49-f577-4647-b3ed-73b7f9b900fd, !- Wednesday Schedule:Day Name
  f5d9dffc-fe21-496e-b55e-d684c3337099, !- Thursday Schedule:Day Name
  bd5b1cea-c878-4f3e-aec0-c2ac0ba00ee3, !- Friday Schedule:Day Name
  720da34d-5d68-461d-bdb9-e02285c661a7, !- Saturday Schedule:Day Name
  84655766-7118-4a80-a644-6c94a8cf6aa8, !- Holiday Schedule:Day Name
  84655766-7118-4a80-a644-6c94a8cf6aa8, !- SummerDesignDay Schedule:Day Name
  84655766-7118-4a80-a644-6c94a8cf6aa8, !- WinterDesignDay Schedule:Day Name
  84655766-7118-4a80-a644-6c94a8cf6aa8, !- CustomDay1 Schedule:Day Name
  84655766-7118-4a80-a644-6c94a8cf6aa8; !- CustomDay2 Schedule:Day Name

Schedule:Week:Daily, CoolAvail_S17_0_10,
  a4b975cc-a5df-49b6-abae-d9247bb6c1d3, !- Sunday Schedule:Day Name
  e51780fd-68b9-485c-b53b-41d4aa329173, !- Monday Schedule:Day Name
  05eb5a75-9c5d-4888-a75e-297719e52851, !- Tuesday Schedule:Day Name
  3d478d37-2a01-4d7a-8394-87f420d4056f, !- Wednesday Schedule:Day Name
  bb5da403-a042-4ac0-830c-c49b77a5b3c6, !- Thursday Schedule:Day Name
  144b99c6-371d-4e34-96fd-79be05b5df0d, !- Friday Schedule:Day Name
  101a4458-ffe6-4b53-8dd8-2467d667ba35, !- Saturday Schedule:Day Name
  a4b975cc-a5df-49b6-abae-d9247bb6c1d3, !- Holiday Schedule:Day Name
  a4b975cc-a5df-49b6-abae-d9247bb6c1d3, !- SummerDesignDay Schedule:Day Name
  a4b975cc-a5df-49b6-abae-d9247bb6c1d3, !- WinterDesignDay Schedule:Day Name
  a4b975cc-a5df-49b6-abae-d9247bb6c1d3, !- CustomDay1 Schedule:Day Name
  a4b975cc-a5df-49b6-abae-d9247bb6c1d3; !- CustomDay2 Schedule:Day Name

Schedule:Week:Daily, CoolAvail_S17_0_11,
  e51780fd-68b9-485c-b53b-41d4aa329173, !- Sunday Schedule:Day Name
  d3e8e271-9eeb-4542-a96c-283e1dd3b835, !- Monday Schedule:Day Name
  6d3bdc77-4564-471a-929c-e30b6d66f166, !- Tuesday Schedule:Day Name
  4dec3c6f-ebbe-4840-a156-b83b58bf089e, !- Wednesday Schedule:Day Name
  bcd3defc-df3e-4200-aec8-a559f004c132, !- Thursday Schedule:Day Name
  a24f8b0f-d930-4ec6-852d-d49dbee14f27, !- Friday Schedule:Day Name
  a3c9ef1d-5eb3-489d-aa31-011d2b399981, !- Saturday Schedule:Day Name
  e51780fd-68b9-485c-b53b-41d4aa329173, !- Holiday Schedule:Day Name
  e51780fd-68b9-485c-b53b-41d4aa329173, !- SummerDesignDay Schedule:Day Name
  e51780fd-68b9-485c-b53b-41d4aa329173, !- WinterDesignDay Schedule:Day Name
  e51780fd-68b9-485c-b53b-41d4aa329173, !- CustomDay1 Schedule:Day Name
  e51780fd-68b9-485c-b53b-41d4aa329173; !- CustomDay2 Schedule:Day Name

Schedule:Week:Daily, CoolAvail_S17_0_12,
  40cf7150-3db1-49aa-a175-be7604a9d796, !- Sunday Schedule:Day Name
  597e3bcf-50a5-4cee-bcda-a732ee54fb23, !- Monday Schedule:Day Name
  0c51b05c-c17b-42b0-8bf1-f191514907be, !- Tuesday Schedule:Day Name
  70282c88-819a-4162-8587-557ea488a8a5, !- Wednesday Schedule:Day Name
  d17734a9-dc6c-469e-8905-0c99d4a1be19, !- Thursday Schedule:Day Name
  5952833e-0dd6-4ae0-bab6-279d1a92a5dd, !- Friday Schedule:Day Name
  47d8ac42-281f-4586-a929-903761bdd1a7, !- Saturday Schedule:Day Name
  40cf7150-3db1-49aa-a175-be7604a9d796, !- Holiday Schedule:Day Name
  40cf7150-3db1-49aa-a175-be7604a9d796, !- SummerDesignDay Schedule:Day Name
  40cf7150-3db1-49aa-a175-be7604a9d796, !- WinterDesignDay Schedule:Day Name
  40cf7150-3db1-49aa-a175-be7604a9d796, !- CustomDay1 Schedule:Day Name
  40cf7150-3db1-49aa-a175-be7604a9d796; !- CustomDay2 Schedule:Day Name

Schedule:Week:Daily, CoolAvail_S17_0_13,
  186611b7-1db5-4e3a-8355-d0dec1fedc26, !- Sunday Schedule:Day Name
  84098980-877e-4635-a828-91e21f81b511, !- Monday Schedule:Day Name
  03b0116c-4688-4797-a88d-1b1f29f30a07, !- Tuesday Schedule:Day Name
  bd368ace-ef05-4c35-a01c-8a563ed94cf9, !- Wednesday Schedule:Day Name
  e1601026-7a88-4fbe-9fa2-717b51dc1f14, !- Thursday Schedule:Day Name
  bb575d25-fef9-4371-8b21-18cc0cde7ad8, !- Friday Schedule:Day Name
  56f694f2-8025-4063-bb34-8da1a62c7792, !- Saturday Schedule:Day Name
  186611b7-1db5-4e3a-8355-d0dec1fedc26, !- Holiday Schedule:Day Name
  186611b7-1db5-4e3a-8355-d0dec1fedc26, !- SummerDesignDay Schedule:Day Name
  186611b7-1db5-4e3a-8355-d0dec1fedc26, !- WinterDesignDay Schedule:Day Name
  186611b7-1db5-4e3a-8355-d0dec1fedc26, !- CustomDay1 Schedule:Day Name
  186611b7-1db5-4e3a-8355-d0dec1fedc26; !- CustomDay2 Schedule:Day Name

Schedule:Week:Daily, CoolAvail_S17_0_14,
  c75b36c4-872b-4d70-8e66-6397ceceeee9, !- Sunday Schedule:Day Name
  d8146e5e-3f8d-44b3-8039-e293e5046815, !- Monday Schedule:Day Name
  aa027ed6-10fd-491e-b979-7c4df764123a, !- Tuesday Schedule:Day Name
  5b8cced1-8d09-420b-bea1-3bcd082d2a59, !- Wednesday Schedule:Day Name
  aaadf03e-f1ed-4584-b967-708c863af830, !- Thursday Schedule:Day Name
  9271a65d-f0a2-4518-ab25-2b1222f43614, !- Friday Schedule:Day Name
  a03383d5-79b0-4cc1-9102-54055f6fa786, !- Saturday Schedule:Day Name
  c75b36c4-872b-4d70-8e66-6397ceceeee9, !- Holiday Schedule:Day Name
  c75b36c4-872b-4d70-8e66-6397ceceeee9, !- SummerDesignDay Schedule:Day Name
  c75b36c4-872b-4d70-8e66-6397ceceeee9, !- WinterDesignDay Schedule:Day Name
  c75b36c4-872b-4d70-8e66-6397ceceeee9, !- CustomDay1 Schedule:Day Name
  c75b36c4-872b-4d70-8e66-6397ceceeee9; !- CustomDay2 Schedule:Day Name

Schedule:Week:Daily, CoolAvail_S17_0_15,
  d9bd1216-b212-4bb2-9107-dec962127257, !- Sunday Schedule:Day Name
  2c3b5ebd-3111-4c17-b66e-443d69483076, !- Monday Schedule:Day Name
  263132f3-57e5-4e7f-9b16-8f6529a17f7c, !- Tuesday Schedule:Day Name
  1b73200d-bde2-4e65-af20-2fa226fcb48a, !- Wednesday Schedule:Day Name
  8635af30-c595-4629-9129-95f505b9506e, !- Thursday Schedule:Day Name
  ad4a0e78-dd8a-4dbe-b05a-ba8400d12c34, !- Friday Schedule:Day Name
  36c5c6dd-eb97-4d93-bd78-dbd075d1ee1b, !- Saturday Schedule:Day Name
  d9bd1216-b212-4bb2-9107-dec962127257, !- Holiday Schedule:Day Name
  d9bd1216-b212-4bb2-9107-dec962127257, !- SummerDesignDay Schedule:Day Name
  d9bd1216-b212-4bb2-9107-dec962127257, !- WinterDesignDay Schedule:Day Name
  d9bd1216-b212-4bb2-9107-dec962127257, !- CustomDay1 Schedule:Day Name
  d9bd1216-b212-4bb2-9107-dec962127257; !- CustomDay2 Schedule:Day Name

Schedule:Week:Daily, CoolAvail_S17_0_16,
  5111b8af-08af-4e27-b4db-bae5f85f107f, !- Sunday Schedule:Day Name
  e6003aaa-db7a-4cde-babe-521403300f0f, !- Monday Schedule:Day Name
  d42c45ce-fbda-4b08-bce1-e1fdf0205d69, !- Tuesday Schedule:Day Name
  bdf076c8-aa22-4d61-b4fc-447625afc682, !- Wednesday Schedule:Day Name
  b9d22d3b-71d2-4377-8607-78e92197aa42, !- Thursday Schedule:Day Name
  2e7f09d8-3a33-4b4e-8b59-d441d2a0bb7c, !- Friday Schedule:Day Name
  2c4de5b4-676e-43c5-8055-8066f0c48a3f, !- Saturday Schedule:Day Name
  5111b8af-08af-4e27-b4db-bae5f85f107f, !- Holiday Schedule:Day Name
  5111b8af-08af-4e27-b4db-bae5f85f107f, !- SummerDesignDay Schedule:Day Name
  5111b8af-08af-4e27-b4db-bae5f85f107f, !- WinterDesignDay Schedule:Day Name
  5111b8af-08af-4e27-b4db-bae5f85f107f, !- CustomDay1 Schedule:Day Name
  5111b8af-08af-4e27-b4db-bae5f85f107f; !- CustomDay2 Schedule:Day Name

Schedule:Week:Daily, CoolAvail_S17_0_17,
  8e029877-b215-471b-a3d8-5c1cc8bc365b, !- Sunday Schedule:Day Name
  c8cde78c-e308-450c-a688-6e47071ecba6, !- Monday Schedule:Day Name
  f87c2997-4a22-4960-99c3-c290975bd6d5, !- Tuesday Schedule:Day Name
  4f585860-18b9-4ac7-aa09-0524684b216c, !- Wednesday Schedule:Day Name
  92a99a64-2e8a-47e6-bd10-86ae4ffcd058, !- Thursday Schedule:Day Name
  a9581180-73f1-445c-b220-8a3599919bc0, !- Friday Schedule:Day Name
  ffe9693d-cba8-4656-ba5e-c0fcf7cfd1aa, !- Saturday Schedule:Day Name
  8e029877-b215-471b-a3d8-5c1cc8bc365b, !- Holiday Schedule:Day Name
  8e029877-b215-471b-a3d8-5c1cc8bc365b, !- SummerDesignDay Schedule:Day Name
  8e029877-b215-471b-a3d8-5c1cc8bc365b, !- WinterDesignDay Schedule:Day Name
  8e029877-b215-471b-a3d8-5c1cc8bc365b, !- CustomDay1 Schedule:Day Name
  8e029877-b215-471b-a3d8-5c1cc8bc365b; !- CustomDay2 Schedule:Day Name

Schedule:Week:Daily, CoolAvail_S17_0_18,
  e7d0f24e-2a79-449a-b914-825c02bf48bf, !- Sunday Schedule:Day Name
  32b8ac8a-0c12-4924-b2f7-85b381cd1c16, !- Monday Schedule:Day Name
  4b87aed5-e8ee-4a6f-b250-1005cea65da3, !- Tuesday Schedule:Day Name
  e7d0f24e-2a79-449a-b914-825c02bf48bf, !- Wednesday Schedule:Day Name
  0aaa7bcc-497a-4607-aca6-c96565fd58ed, !- Thursday Schedule:Day Name
  24cd38cf-6549-4cde-b228-82bc1c773714, !- Friday Schedule:Day Name
  93429806-64e9-4ef9-a993-53d9ea7bfa59, !- Saturday Schedule:Day Name
  e7d0f24e-2a79-449a-b914-825c02bf48bf, !- Holiday Schedule:Day Name
  e7d0f24e-2a79-449a-b914-825c02bf48bf, !- SummerDesignDay Schedule:Day Name
  e7d0f24e-2a79-449a-b914-825c02bf48bf, !- WinterDesignDay Schedule:Day Name
  e7d0f24e-2a79-449a-b914-825c02bf48bf, !- CustomDay1 Schedule:Day Name
  e7d0f24e-2a79-449a-b914-825c02bf48bf; !- CustomDay2 Schedule:Day Name

Schedule:Week:Daily, CoolAvail_S17_0_19,
  b1ad10cd-9f4f-4c01-90f3-a9fc60b02d29, !- Sunday Schedule:Day Name
  1f6dd566-09e1-4fab-9511-350aed55dfb4, !- Monday Schedule:Day Name
  993e9391-22bb-4028-8e26-d2a81c76591b, !- Tuesday Schedule:Day Name
  1cf3126f-f758-4047-aff0-bca489412336, !- Wednesday Schedule:Day Name
  39b771b2-a980-4721-9fbd-bb82bc33320a, !- Thursday Schedule:Day Name
  1fca9003-f92a-40b5-9276-8de7f9229d0e, !- Friday Schedule:Day Name
  bf69910e-302e-4d5d-8f7b-2db65928aae6, !- Saturday Schedule:Day Name
  b1ad10cd-9f4f-4c01-90f3-a9fc60b02d29, !- Holiday Schedule:Day Name
  b1ad10cd-9f4f-4c01-90f3-a9fc60b02d29, !- SummerDesignDay Schedule:Day Name
  b1ad10cd-9f4f-4c01-90f3-a9fc60b02d29, !- WinterDesignDay Schedule:Day Name
  b1ad10cd-9f4f-4c01-90f3-a9fc60b02d29, !- CustomDay1 Schedule:Day Name
  b1ad10cd-9f4f-4c01-90f3-a9fc60b02d29; !- CustomDay2 Schedule:Day Name

Schedule:Week:Daily, CoolAvail_S17_0_20,
  1ddc7ad3-d268-423d-b9ef-a5decc2562e4, !- Sunday Schedule:Day Name
  faaa7842-4c6c-4ef7-afeb-d61a35a55d33, !- Monday Schedule:Day Name
  b1ad10cd-9f4f-4c01-90f3-a9fc60b02d29, !- Tuesday Schedule:Day Name
  657eb751-9b13-44ce-9e96-2a48266ff616, !- Wednesday Schedule:Day Name
  af898841-d3d3-4b33-9f52-789d41f2738b, !- Thursday Schedule:Day Name
  fd688387-9499-4591-a57c-4b70abe1bad6, !- Friday Schedule:Day Name
  2d760525-19a6-48a2-aa2b-80dd83e4684c, !- Saturday Schedule:Day Name
  1ddc7ad3-d268-423d-b9ef-a5decc2562e4, !- Holiday Schedule:Day Name
  1ddc7ad3-d268-423d-b9ef-a5decc2562e4, !- SummerDesignDay Schedule:Day Name
  1ddc7ad3-d268-423d-b9ef-a5decc2562e4, !- WinterDesignDay Schedule:Day Name
  1ddc7ad3-d268-423d-b9ef-a5decc2562e4, !- CustomDay1 Schedule:Day Name
  1ddc7ad3-d268-423d-b9ef-a5decc2562e4; !- CustomDay2 Schedule:Day Name

Schedule:Week:Daily, CoolAvail_S17_0_21,
  674b4eaa-2aa8-4d6a-957b-2815946675b6, !- Sunday Schedule:Day Name
  73acdd30-99d9-4ef9-a6ab-29992fc131c9, !- Monday Schedule:Day Name
  88dae2dc-b2b6-483f-aad9-57490e7ec9bf, !- Tuesday Schedule:Day Name
  3e5202b2-92b1-4bd3-b872-ac2f51082082, !- Wednesday Schedule:Day Name
  5fa37d88-9791-4811-b504-9434ee3b7cc9, !- Thursday Schedule:Day Name
  bcfbfcb5-970f-4759-8ff8-104563bd61c5, !- Friday Schedule:Day Name
  9bfe587a-8cee-4c54-b5fe-e9048f15d1c4, !- Saturday Schedule:Day Name
  674b4eaa-2aa8-4d6a-957b-2815946675b6, !- Holiday Schedule:Day Name
  674b4eaa-2aa8-4d6a-957b-2815946675b6, !- SummerDesignDay Schedule:Day Name
  674b4eaa-2aa8-4d6a-957b-2815946675b6, !- WinterDesignDay Schedule:Day Name
  674b4eaa-2aa8-4d6a-957b-2815946675b6, !- CustomDay1 Schedule:Day Name
  674b4eaa-2aa8-4d6a-957b-2815946675b6; !- CustomDay2 Schedule:Day Name

Schedule:Week:Daily, CoolAvail_S17_0_22,
  84ccb1a8-6ff8-454e-a66c-c8c71aed1be8, !- Sunday Schedule:Day Name
  9c0c3f4b-d4a6-4dee-9c4d-c9b7b78d7c47, !- Monday Schedule:Day Name
  6896cc22-7d9c-40a6-8f16-9a0ea75945f6, !- Tuesday Schedule:Day Name
  62ef4096-a4e5-444d-bcbb-7f82a5c35e1a, !- Wednesday Schedule:Day Name
  2f7a5285-7309-4b83-95e1-5d5cfa6285ab, !- Thursday Schedule:Day Name
  d2f2f440-4eff-4442-9606-db8f940ce1ef, !- Friday Schedule:Day Name
  a30d819a-71b9-42c9-8859-ec36a8cf5ef9, !- Saturday Schedule:Day Name
  84ccb1a8-6ff8-454e-a66c-c8c71aed1be8, !- Holiday Schedule:Day Name
  84ccb1a8-6ff8-454e-a66c-c8c71aed1be8, !- SummerDesignDay Schedule:Day Name
  84ccb1a8-6ff8-454e-a66c-c8c71aed1be8, !- WinterDesignDay Schedule:Day Name
  84ccb1a8-6ff8-454e-a66c-c8c71aed1be8, !- CustomDay1 Schedule:Day Name
  84ccb1a8-6ff8-454e-a66c-c8c71aed1be8; !- CustomDay2 Schedule:Day Name

Schedule:Week:Daily, CoolAvail_S17_0_23,
  14c777df-a2c5-4c2f-bb9e-070d2fbe33cf, !- Sunday Schedule:Day Name
  660652b9-3721-4b41-99dc-b03b67c93e71, !- Monday Schedule:Day Name
  3b91de32-229d-44a8-aa6d-28e4ecfa2c41, !- Tuesday Schedule:Day Name
  c4d38773-d9ac-4b7a-ab6d-3e1d3619054b, !- Wednesday Schedule:Day Name
  3da5c000-3493-4a5d-90ba-b15c4c908312, !- Thursday Schedule:Day Name
  4485477b-6b4d-4f2f-af3b-db664b62b9fd, !- Friday Schedule:Day Name
  243a0351-07d0-4e53-9c2b-3f13525cdd30, !- Saturday Schedule:Day Name
  14c777df-a2c5-4c2f-bb9e-070d2fbe33cf, !- Holiday Schedule:Day Name
  14c777df-a2c5-4c2f-bb9e-070d2fbe33cf, !- SummerDesignDay Schedule:Day Name
  14c777df-a2c5-4c2f-bb9e-070d2fbe33cf, !- WinterDesignDay Schedule:Day Name
  14c777df-a2c5-4c2f-bb9e-070d2fbe33cf, !- CustomDay1 Schedule:Day Name
  14c777df-a2c5-4c2f-bb9e-070d2fbe33cf; !- CustomDay2 Schedule:Day Name

Schedule:Week:Daily, CoolAvail_S17_0_24,
  ad7e3b5e-c18f-4ffb-95a0-f826f2483b09, !- Sunday Schedule:Day Name
  28ec533d-432d-49b4-978b-de4e0cbf42eb, !- Monday Schedule:Day Name
  ba25d5d5-5386-42b3-a132-874a2e86e97f, !- Tuesday Schedule:Day Name
  ad21c7c2-1df8-489a-94d8-c8b1ac079d80, !- Wednesday Schedule:Day Name
  7ca5b782-b2c2-4ebd-9b04-9f59a634770c, !- Thursday Schedule:Day Name
  c7d08f1d-b857-4d15-bfd6-e455226b22ad, !- Friday Schedule:Day Name
  460d9812-1e10-4f3f-bbaf-33d8d5a661d0, !- Saturday Schedule:Day Name
  ad7e3b5e-c18f-4ffb-95a0-f826f2483b09, !- Holiday Schedule:Day Name
  ad7e3b5e-c18f-4ffb-95a0-f826f2483b09, !- SummerDesignDay Schedule:Day Name
  ad7e3b5e-c18f-4ffb-95a0-f826f2483b09, !- WinterDesignDay Schedule:Day Name
  ad7e3b5e-c18f-4ffb-95a0-f826f2483b09, !- CustomDay1 Schedule:Day Name
  ad7e3b5e-c18f-4ffb-95a0-f826f2483b09; !- CustomDay2 Schedule:Day Name

Schedule:Week:Daily, CoolAvail_S17_0_25,
  ef5c960d-f105-439e-8330-a7b7c658db9c, !- Sunday Schedule:Day Name
  e26bd28e-f679-40df-93e8-6b434ca271d5, !- Monday Schedule:Day Name
  a4e0b79d-80da-4a7b-8d59-48567f5602fe, !- Tuesday Schedule:Day Name
  7ea5de64-d697-454c-a98f-be79bc611366, !- Wednesday Schedule:Day Name
  a53ca86f-7009-49da-825f-5cb0102909fa, !- Thursday Schedule:Day Name
  26cfb7eb-76ab-47bc-aa42-0c9ff96b8a4d, !- Friday Schedule:Day Name
  425ba9f7-c8d1-4060-ac42-2211b0350688, !- Saturday Schedule:Day Name
  ef5c960d-f105-439e-8330-a7b7c658db9c, !- Holiday Schedule:Day Name
  ef5c960d-f105-439e-8330-a7b7c658db9c, !- SummerDesignDay Schedule:Day Name
  ef5c960d-f105-439e-8330-a7b7c658db9c, !- WinterDesignDay Schedule:Day Name
  ef5c960d-f105-439e-8330-a7b7c658db9c, !- CustomDay1 Schedule:Day Name
  ef5c960d-f105-439e-8330-a7b7c658db9c; !- CustomDay2 Schedule:Day Name

Schedule:Week:Daily, CoolAvail_S17_0_26,
  49835cdc-4148-4331-bee0-f7c8662ee433, !- Sunday Schedule:Day Name
  11256a9a-c2b2-4ac5-b30d-246abc56750b, !- Monday Schedule:Day Name
  5109f2aa-8969-47a7-9f32-6cc3f5138566, !- Tuesday Schedule:Day Name
  56ad522b-182b-490b-9b25-f45cb2f8a837, !- Wednesday Schedule:Day Name
  16d47b23-c498-49ed-9a5f-c29565e037f6, !- Thursday Schedule:Day Name
  0131145e-e660-43d2-bbe1-57789cf025ac, !- Friday Schedule:Day Name
  9288f4fb-3710-4ef5-b1e0-d82ae9ef9568, !- Saturday Schedule:Day Name
  49835cdc-4148-4331-bee0-f7c8662ee433, !- Holiday Schedule:Day Name
  49835cdc-4148-4331-bee0-f7c8662ee433, !- SummerDesignDay Schedule:Day Name
  49835cdc-4148-4331-bee0-f7c8662ee433, !- WinterDesignDay Schedule:Day Name
  49835cdc-4148-4331-bee0-f7c8662ee433, !- CustomDay1 Schedule:Day Name
  49835cdc-4148-4331-bee0-f7c8662ee433; !- CustomDay2 Schedule:Day Name

Schedule:Week:Daily, CoolAvail_S17_0_27,
  13a9b8c3-8a91-4b57-aaae-bc0171401b73, !- Sunday Schedule:Day Name
  a1009dd8-b065-4024-9c5c-a666e5a5dde4, !- Monday Schedule:Day Name
  d2cb975e-019b-47da-baad-3492641b1a29, !- Tuesday Schedule:Day Name
  f4e80c03-37c0-4f65-acb0-42164b2fc30b, !- Wednesday Schedule:Day Name
  c70578a4-4172-476c-b90b-dbb9edc7dbdc, !- Thursday Schedule:Day Name
  a4d70ece-0924-45f6-b91d-eefd13a1c80d, !- Friday Schedule:Day Name
  f782a7c3-4e24-47b9-8f29-5344f282bd47, !- Saturday Schedule:Day Name
  13a9b8c3-8a91-4b57-aaae-bc0171401b73, !- Holiday Schedule:Day Name
  13a9b8c3-8a91-4b57-aaae-bc0171401b73, !- SummerDesignDay Schedule:Day Name
  13a9b8c3-8a91-4b57-aaae-bc0171401b73, !- WinterDesignDay Schedule:Day Name
  13a9b8c3-8a91-4b57-aaae-bc0171401b73, !- CustomDay1 Schedule:Day Name
  13a9b8c3-8a91-4b57-aaae-bc0171401b73; !- CustomDay2 Schedule:Day Name

Schedule:Week:Daily, CoolAvail_S17_0_28,
  4aae5b26-c82e-4dd8-afd6-79a1854a4c24, !- Sunday Schedule:Day Name
  2845129c-7200-44b2-9073-178af05f6f7c, !- Monday Schedule:Day Name
  11dd7ce0-b4ae-4092-b44f-28a39006776f, !- Tuesday Schedule:Day Name
  59cdf5f3-626f-4c03-8f86-27c54c15e6bc, !- Wednesday Schedule:Day Name
  4f585860-18b9-4ac7-aa09-0524684b216c, !- Thursday Schedule:Day Name
  f7b1d11e-415e-40ca-a212-de9acd9689d6, !- Friday Schedule:Day Name
  674b4eaa-2aa8-4d6a-957b-2815946675b6, !- Saturday Schedule:Day Name
  4aae5b26-c82e-4dd8-afd6-79a1854a4c24, !- Holiday Schedule:Day Name
  4aae5b26-c82e-4dd8-afd6-79a1854a4c24, !- SummerDesignDay Schedule:Day Name
  4aae5b26-c82e-4dd8-afd6-79a1854a4c24, !- WinterDesignDay Schedule:Day Name
  4aae5b26-c82e-4dd8-afd6-79a1854a4c24, !- CustomDay1 Schedule:Day Name
  4aae5b26-c82e-4dd8-afd6-79a1854a4c24; !- CustomDay2 Schedule:Day Name

Schedule:Week:Daily, CoolAvail_S17_0_29,
  3dd9e6cd-de7c-4632-8e09-4da419557454, !- Sunday Schedule:Day Name
  6cf8b87a-2efc-4c8b-846c-dbd84e0dfbf2, !- Monday Schedule:Day Name
  64cbd1fc-1db1-4998-8b02-a684e0690a59, !- Tuesday Schedule:Day Name
  973136e5-7eaf-48f7-b915-6c9a37701442, !- Wednesday Schedule:Day Name
  4f585860-18b9-4ac7-aa09-0524684b216c, !- Thursday Schedule:Day Name
  4f585860-18b9-4ac7-aa09-0524684b216c, !- Friday Schedule:Day Name
  e4a2ab30-1faa-4ef8-825b-335844a9c8b1, !- Saturday Schedule:Day Name
  3dd9e6cd-de7c-4632-8e09-4da419557454, !- Holiday Schedule:Day Name
  3dd9e6cd-de7c-4632-8e09-4da419557454, !- SummerDesignDay Schedule:Day Name
  3dd9e6cd-de7c-4632-8e09-4da419557454, !- WinterDesignDay Schedule:Day Name
  3dd9e6cd-de7c-4632-8e09-4da419557454, !- CustomDay1 Schedule:Day Name
  3dd9e6cd-de7c-4632-8e09-4da419557454; !- CustomDay2 Schedule:Day Name

Schedule:Week:Daily, CoolAvail_S17_0_30,
  382cd65b-8ca2-4f2f-ae42-58c248ed6a25, !- Sunday Schedule:Day Name
  e51780fd-68b9-485c-b53b-41d4aa329173, !- Monday Schedule:Day Name
  4f1fe2c2-a220-4c87-91ab-9887e1e74f2c, !- Tuesday Schedule:Day Name
  404c002d-f548-4d23-86b3-a2114c99788d, !- Wednesday Schedule:Day Name
  2b6407cb-7b23-4944-b2f8-6b6add0085de, !- Thursday Schedule:Day Name
  7bdb7382-c11b-47d1-a991-071ec3c919f0, !- Friday Schedule:Day Name
  109da854-8c3a-4e1c-8ab1-9de36e825529, !- Saturday Schedule:Day Name
  382cd65b-8ca2-4f2f-ae42-58c248ed6a25, !- Holiday Schedule:Day Name
  382cd65b-8ca2-4f2f-ae42-58c248ed6a25, !- SummerDesignDay Schedule:Day Name
  382cd65b-8ca2-4f2f-ae42-58c248ed6a25, !- WinterDesignDay Schedule:Day Name
  382cd65b-8ca2-4f2f-ae42-58c248ed6a25, !- CustomDay1 Schedule:Day Name
  382cd65b-8ca2-4f2f-ae42-58c248ed6a25; !- CustomDay2 Schedule:Day Name

Schedule:Week:Daily, CoolAvail_S17_0_31,
  46637283-3775-4203-899c-fd808efceca8, !- Sunday Schedule:Day Name
  657eb751-9b13-44ce-9e96-2a48266ff616, !- Monday Schedule:Day Name
  64cbd1fc-1db1-4998-8b02-a684e0690a59, !- Tuesday Schedule:Day Name
  8c4d05c7-5cf0-4f0c-81c6-a955a40e5b32, !- Wednesday Schedule:Day Name
  dbd2f23c-5e40-44eb-aa9c-d96a30dcd641, !- Thursday Schedule:Day Name
  b4717505-3080-4605-921e-3500b5537a68, !- Friday Schedule:Day Name
  26ddad88-262f-4052-b9cd-acf6b78effdf, !- Saturday Schedule:Day Name
  46637283-3775-4203-899c-fd808efceca8, !- Holiday Schedule:Day Name
  46637283-3775-4203-899c-fd808efceca8, !- SummerDesignDay Schedule:Day Name
  46637283-3775-4203-899c-fd808efceca8, !- WinterDesignDay Schedule:Day Name
  46637283-3775-4203-899c-fd808efceca8, !- CustomDay1 Schedule:Day Name
  46637283-3775-4203-899c-fd808efceca8; !- CustomDay2 Schedule:Day Name

Schedule:Week:Daily, CoolAvail_S17_0_32,
  cd6e4dc1-4d21-4f61-a705-2eb9fba18fde, !- Sunday Schedule:Day Name
  125c1e64-bc49-4757-8d04-a9078fa8e63b, !- Monday Schedule:Day Name
  0a2793f6-6b94-45ca-8b08-dc81659b7e8e, !- Tuesday Schedule:Day Name
  a433db04-20cc-4a49-86f1-28c7bb3e9b04, !- Wednesday Schedule:Day Name
  c630dff6-8833-44c4-9bfd-c1adf9463294, !- Thursday Schedule:Day Name
  9304811f-a323-4f46-bbf5-8ed91a1e0ed5, !- Friday Schedule:Day Name
  26efab8f-71d1-49ac-8e6d-80e545446edc, !- Saturday Schedule:Day Name
  cd6e4dc1-4d21-4f61-a705-2eb9fba18fde, !- Holiday Schedule:Day Name
  cd6e4dc1-4d21-4f61-a705-2eb9fba18fde, !- SummerDesignDay Schedule:Day Name
  cd6e4dc1-4d21-4f61-a705-2eb9fba18fde, !- WinterDesignDay Schedule:Day Name
  cd6e4dc1-4d21-4f61-a705-2eb9fba18fde, !- CustomDay1 Schedule:Day Name
  cd6e4dc1-4d21-4f61-a705-2eb9fba18fde; !- CustomDay2 Schedule:Day Name

Schedule:Week:Daily, CoolAvail_S17_0_33,
  2763e292-c780-4388-9eb1-5602e8280f79, !- Sunday Schedule:Day Name
  04d9b4cc-3361-45ed-a605-d6ad5f25c658, !- Monday Schedule:Day Name
  96573092-6b43-42e0-a5c7-47cef951f330, !- Tuesday Schedule:Day Name
  838c61b4-e72b-4a26-b894-5ca9a22fec98, !- Wednesday Schedule:Day Name
  f44c7d43-eb63-4cbe-8a9a-e6e9b300dd86, !- Thursday Schedule:Day Name
  88dae2dc-b2b6-483f-aad9-57490e7ec9bf, !- Friday Schedule:Day Name
  4ffb8b96-8488-4462-97e4-fcb9d6916c09, !- Saturday Schedule:Day Name
  2763e292-c780-4388-9eb1-5602e8280f79, !- Holiday Schedule:Day Name
  2763e292-c780-4388-9eb1-5602e8280f79, !- SummerDesignDay Schedule:Day Name
  2763e292-c780-4388-9eb1-5602e8280f79, !- WinterDesignDay Schedule:Day Name
  2763e292-c780-4388-9eb1-5602e8280f79, !- CustomDay1 Schedule:Day Name
  2763e292-c780-4388-9eb1-5602e8280f79; !- CustomDay2 Schedule:Day Name

Schedule:Week:Daily, CoolAvail_S17_0_34,
  3732aef1-e269-4c4b-9e84-9b4ce90f3599, !- Sunday Schedule:Day Name
  131d9379-0c3a-4213-9615-08ed3ee987e3, !- Monday Schedule:Day Name
  64d2ef84-f735-40f5-848f-b84cf636545b, !- Tuesday Schedule:Day Name
  8bffd4ed-cacd-4c23-92e5-9d9dea66ee59, !- Wednesday Schedule:Day Name
  38b78c56-95b2-40a6-8eb6-abe085f8060e, !- Thursday Schedule:Day Name
  41d94b3c-f69d-4b60-9381-8accf866c43d, !- Friday Schedule:Day Name
  31bed374-725e-4fb7-96bb-4f30082a6669, !- Saturday Schedule:Day Name
  3732aef1-e269-4c4b-9e84-9b4ce90f3599, !- Holiday Schedule:Day Name
  3732aef1-e269-4c4b-9e84-9b4ce90f3599, !- SummerDesignDay Schedule:Day Name
  3732aef1-e269-4c4b-9e84-9b4ce90f3599, !- WinterDesignDay Schedule:Day Name
  3732aef1-e269-4c4b-9e84-9b4ce90f3599, !- CustomDay1 Schedule:Day Name
  3732aef1-e269-4c4b-9e84-9b4ce90f3599; !- CustomDay2 Schedule:Day Name

Schedule:Week:Daily, CoolAvail_S17_0_35,
  eca01a4c-e19c-4b26-a5e4-bcd698a1f312, !- Sunday Schedule:Day Name
  4d17fef4-ccfb-4f9b-86bf-6a31afba34bf, !- Monday Schedule:Day Name
  324a820c-9e79-4287-9929-5af24269ea02, !- Tuesday Schedule:Day Name
  1ecb58a0-4cbf-4c1c-9654-0718d4808108, !- Wednesday Schedule:Day Name
  328e2f82-dc52-4c28-ab51-245193f499f0, !- Thursday Schedule:Day Name
  581f2440-89ba-449f-95ed-24e56b724746, !- Friday Schedule:Day Name
  4505f2e5-c974-4700-b0ed-2fbd1115c669, !- Saturday Schedule:Day Name
  eca01a4c-e19c-4b26-a5e4-bcd698a1f312, !- Holiday Schedule:Day Name
  eca01a4c-e19c-4b26-a5e4-bcd698a1f312, !- SummerDesignDay Schedule:Day Name
  eca01a4c-e19c-4b26-a5e4-bcd698a1f312, !- WinterDesignDay Schedule:Day Name
  eca01a4c-e19c-4b26-a5e4-bcd698a1f312, !- CustomDay1 Schedule:Day Name
  eca01a4c-e19c-4b26-a5e4-bcd698a1f312; !- CustomDay2 Schedule:Day Name

Schedule:Week:Daily, CoolAvail_S17_0_36,
  f8703f59-7315-4c81-a6d3-daec133cf262, !- Sunday Schedule:Day Name
  1ddc7ad3-d268-423d-b9ef-a5decc2562e4, !- Monday Schedule:Day Name
  7c9d4112-4d7d-46a7-a392-567ee75c1faf, !- Tuesday Schedule:Day Name
  08cca002-0a92-48bb-98a0-a9bfe699148d, !- Wednesday Schedule:Day Name
  ad69dad0-a228-4842-8893-8c3622a09e1a, !- Thursday Schedule:Day Name
  56a7906b-8b57-4ed4-80dd-8e4b8924105c, !- Friday Schedule:Day Name
  a4e0b79d-80da-4a7b-8d59-48567f5602fe, !- Saturday Schedule:Day Name
  f8703f59-7315-4c81-a6d3-daec133cf262, !- Holiday Schedule:Day Name
  f8703f59-7315-4c81-a6d3-daec133cf262, !- SummerDesignDay Schedule:Day Name
  f8703f59-7315-4c81-a6d3-daec133cf262, !- WinterDesignDay Schedule:Day Name
  f8703f59-7315-4c81-a6d3-daec133cf262, !- CustomDay1 Schedule:Day Name
  f8703f59-7315-4c81-a6d3-daec133cf262; !- CustomDay2 Schedule:Day Name

Schedule:Week:Daily, CoolAvail_S17_0_37,
  4f585860-18b9-4ac7-aa09-0524684b216c, !- Sunday Schedule:Day Name
  35bfe634-abd5-4321-8240-e2e51131fc19, !- Monday Schedule:Day Name
  216fef4e-556d-4d45-9276-d794d4edb9d1, !- Tuesday Schedule:Day Name
  23d8341d-39d1-4cad-8210-b67dd821eae3, !- Wednesday Schedule:Day Name
  21af95f6-3f22-4c2b-8c65-aa3243ec1cda, !- Thursday Schedule:Day Name
  22a1e51b-2093-4564-b5ed-ae6a32fcb6cb, !- Friday Schedule:Day Name
  27ece69b-9f15-4565-aafb-14e8b30c6f24, !- Saturday Schedule:Day Name
  4f585860-18b9-4ac7-aa09-0524684b216c, !- Holiday Schedule:Day Name
  4f585860-18b9-4ac7-aa09-0524684b216c, !- SummerDesignDay Schedule:Day Name
  4f585860-18b9-4ac7-aa09-0524684b216c, !- WinterDesignDay Schedule:Day Name
  4f585860-18b9-4ac7-aa09-0524684b216c, !- CustomDay1 Schedule:Day Name
  4f585860-18b9-4ac7-aa09-0524684b216c; !- CustomDay2 Schedule:Day Name

Schedule:Week:Daily, CoolAvail_S17_0_38,
  38bb5bee-d901-4922-b601-fa4e0b83000a, !- Sunday Schedule:Day Name
  f10935d8-bf25-46bb-853f-70b318c561c0, !- Monday Schedule:Day Name
  f8703f59-7315-4c81-a6d3-daec133cf262, !- Tuesday Schedule:Day Name
  c55de4f9-5b5b-43f8-b345-433e33f9a284, !- Wednesday Schedule:Day Name
  16e3741b-a500-461d-a6ed-fc0679f2b8ed, !- Thursday Schedule:Day Name
  4eb27dbc-bfc3-4997-bc50-2bbe2ae7be88, !- Friday Schedule:Day Name
  5ac09ab2-beb6-4f57-9377-471444e6df28, !- Saturday Schedule:Day Name
  38bb5bee-d901-4922-b601-fa4e0b83000a, !- Holiday Schedule:Day Name
  38bb5bee-d901-4922-b601-fa4e0b83000a, !- SummerDesignDay Schedule:Day Name
  38bb5bee-d901-4922-b601-fa4e0b83000a, !- WinterDesignDay Schedule:Day Name
  38bb5bee-d901-4922-b601-fa4e0b83000a, !- CustomDay1 Schedule:Day Name
  38bb5bee-d901-4922-b601-fa4e0b83000a; !- CustomDay2 Schedule:Day Name

Schedule:Week:Daily, CoolAvail_S17_0_39,
  d9334854-d197-4658-af41-34ca6e427bc2, !- Sunday Schedule:Day Name
  e0120a70-5495-43e2-bb04-d85c7344809b, !- Monday Schedule:Day Name
  a1530b9f-aa9a-44a0-9089-bc16a00b669e, !- Tuesday Schedule:Day Name
  b80e21ad-0aa0-476b-a39c-7dbb701e5039, !- Wednesday Schedule:Day Name
  c9460a58-7f65-499f-93ef-bf7f84d4d2b7, !- Thursday Schedule:Day Name
  3c9a2343-97bf-4438-bbac-0b0613b5cb3d, !- Friday Schedule:Day Name
  4f585860-18b9-4ac7-aa09-0524684b216c, !- Saturday Schedule:Day Name
  d9334854-d197-4658-af41-34ca6e427bc2, !- Holiday Schedule:Day Name
  d9334854-d197-4658-af41-34ca6e427bc2, !- SummerDesignDay Schedule:Day Name
  d9334854-d197-4658-af41-34ca6e427bc2, !- WinterDesignDay Schedule:Day Name
  d9334854-d197-4658-af41-34ca6e427bc2, !- CustomDay1 Schedule:Day Name
  d9334854-d197-4658-af41-34ca6e427bc2; !- CustomDay2 Schedule:Day Name

Schedule:Week:Daily, CoolAvail_S17_0_40,
  973136e5-7eaf-48f7-b915-6c9a37701442, !- Sunday Schedule:Day Name
  ba165f2a-0a90-41e4-92a6-d02a0a46b943, !- Monday Schedule:Day Name
  26ee9eff-1623-47c5-839f-52054b0ed0af, !- Tuesday Schedule:Day Name
  735f1e76-030f-4e2a-a5f5-b0a8f4907394, !- Wednesday Schedule:Day Name
  128f470d-150a-4e7b-ae07-43f4f1eff838, !- Thursday Schedule:Day Name
  791541ee-b5a6-415e-91e9-6991e1c80c7a, !- Friday Schedule:Day Name
  e5c722e7-6da8-4bbe-804a-78448155b7ed, !- Saturday Schedule:Day Name
  973136e5-7eaf-48f7-b915-6c9a37701442, !- Holiday Schedule:Day Name
  973136e5-7eaf-48f7-b915-6c9a37701442, !- SummerDesignDay Schedule:Day Name
  973136e5-7eaf-48f7-b915-6c9a37701442, !- WinterDesignDay Schedule:Day Name
  973136e5-7eaf-48f7-b915-6c9a37701442, !- CustomDay1 Schedule:Day Name
  973136e5-7eaf-48f7-b915-6c9a37701442; !- CustomDay2 Schedule:Day Name

Schedule:Week:Daily, CoolAvail_S17_0_41,
  6feb05bb-3b47-4e1a-a18e-e1cbfe3bb0fd, !- Sunday Schedule:Day Name
  64400c93-05fa-4272-b678-8e14fcb98c33, !- Monday Schedule:Day Name
  ed0dcf7f-ad70-4942-9c09-dba42210d571, !- Tuesday Schedule:Day Name
  8b65e0a5-b0e8-41a0-8c55-46b98c72f420, !- Wednesday Schedule:Day Name
  747f836d-5fa0-4766-9935-bec713b8a2cf, !- Thursday Schedule:Day Name
  35819b10-d477-4c47-b0b5-ca36da1a74a7, !- Friday Schedule:Day Name
  a60063e1-1796-485a-95ae-76ba7a375841, !- Saturday Schedule:Day Name
  6feb05bb-3b47-4e1a-a18e-e1cbfe3bb0fd, !- Holiday Schedule:Day Name
  6feb05bb-3b47-4e1a-a18e-e1cbfe3bb0fd, !- SummerDesignDay Schedule:Day Name
  6feb05bb-3b47-4e1a-a18e-e1cbfe3bb0fd, !- WinterDesignDay Schedule:Day Name
  6feb05bb-3b47-4e1a-a18e-e1cbfe3bb0fd, !- CustomDay1 Schedule:Day Name
  6feb05bb-3b47-4e1a-a18e-e1cbfe3bb0fd; !- CustomDay2 Schedule:Day Name

Schedule:Week:Daily, CoolAvail_S17_0_42,
  6365fd77-f3b6-4dce-b616-1bd741a7593f, !- Sunday Schedule:Day Name
  b9fda6bb-e24d-488c-892a-f10f506fc230, !- Monday Schedule:Day Name
  82558eb8-a907-4d96-bfc2-141b1edff7b8, !- Tuesday Schedule:Day Name
  199bd7b1-b331-4ea2-9c2b-c964a8bbb985, !- Wednesday Schedule:Day Name
  f92b5ace-c104-4eec-8cf6-22f32ade0833, !- Thursday Schedule:Day Name
  eaceb619-25f8-4c61-944b-39e37ccd661c, !- Friday Schedule:Day Name
  defd7e23-ccfe-4ff6-ae0f-768495bc4423, !- Saturday Schedule:Day Name
  6365fd77-f3b6-4dce-b616-1bd741a7593f, !- Holiday Schedule:Day Name
  6365fd77-f3b6-4dce-b616-1bd741a7593f, !- SummerDesignDay Schedule:Day Name
  6365fd77-f3b6-4dce-b616-1bd741a7593f, !- WinterDesignDay Schedule:Day Name
  6365fd77-f3b6-4dce-b616-1bd741a7593f, !- CustomDay1 Schedule:Day Name
  6365fd77-f3b6-4dce-b616-1bd741a7593f; !- CustomDay2 Schedule:Day Name

Schedule:Week:Daily, CoolAvail_S17_0_43,
  51a67dad-ee02-442a-8bdc-920b9719b10e, !- Sunday Schedule:Day Name
  4b54abea-f727-42e1-922a-d229dd492388, !- Monday Schedule:Day Name
  5055d847-8683-4ed0-87d4-19b96ef13de3, !- Tuesday Schedule:Day Name
  04c42399-f9f3-47a2-a6ce-dd65ae4d9d1c, !- Wednesday Schedule:Day Name
  a42c647a-e62e-409e-87df-b8050869f66e, !- Thursday Schedule:Day Name
  c5ca1a3e-0cff-478c-a2a6-9b24cfcff8fa, !- Friday Schedule:Day Name
  0ca41cd6-8cb8-45e8-9b24-2fefdcedf8ac, !- Saturday Schedule:Day Name
  51a67dad-ee02-442a-8bdc-920b9719b10e, !- Holiday Schedule:Day Name
  51a67dad-ee02-442a-8bdc-920b9719b10e, !- SummerDesignDay Schedule:Day Name
  51a67dad-ee02-442a-8bdc-920b9719b10e, !- WinterDesignDay Schedule:Day Name
  51a67dad-ee02-442a-8bdc-920b9719b10e, !- CustomDay1 Schedule:Day Name
  51a67dad-ee02-442a-8bdc-920b9719b10e; !- CustomDay2 Schedule:Day Name

Schedule:Week:Daily, CoolAvail_S17_0_44,
  12dceb46-d6db-4599-9b63-a6f514dc4f92, !- Sunday Schedule:Day Name
  878d5cbf-7b98-4252-a014-d4995158d2dc, !- Monday Schedule:Day Name
  7e2dd2c3-aa8a-4bdb-822a-83a93267469c, !- Tuesday Schedule:Day Name
  005e9998-0b35-42f6-a249-7a2c13225b52, !- Wednesday Schedule:Day Name
  00145504-8680-4e78-97fe-220fc942b377, !- Thursday Schedule:Day Name
  bb9c41be-61c1-4ebd-bf29-762ad8a061f1, !- Friday Schedule:Day Name
  51d52436-b71f-4e46-99ec-c6f1f2ebe9eb, !- Saturday Schedule:Day Name
  12dceb46-d6db-4599-9b63-a6f514dc4f92, !- Holiday Schedule:Day Name
  12dceb46-d6db-4599-9b63-a6f514dc4f92, !- SummerDesignDay Schedule:Day Name
  12dceb46-d6db-4599-9b63-a6f514dc4f92, !- WinterDesignDay Schedule:Day Name
  12dceb46-d6db-4599-9b63-a6f514dc4f92, !- CustomDay1 Schedule:Day Name
  12dceb46-d6db-4599-9b63-a6f514dc4f92; !- CustomDay2 Schedule:Day Name

Schedule:Week:Daily, CoolAvail_S17_0_45,
  57295fca-58e6-4d14-8e2b-0a7e50582ef8, !- Sunday Schedule:Day Name
  e51780fd-68b9-485c-b53b-41d4aa329173, !- Monday Schedule:Day Name
  0416ab25-20df-4614-b3f5-29b9eaf4fa9c, !- Tuesday Schedule:Day Name
  48f227b6-837a-4e3a-a835-452beb52d8a7, !- Wednesday Schedule:Day Name
  a1530b9f-aa9a-44a0-9089-bc16a00b669e, !- Thursday Schedule:Day Name
  8398727b-d2d4-4ee7-96ab-770dfcc77527, !- Friday Schedule:Day Name
  57295fca-58e6-4d14-8e2b-0a7e50582ef8, !- Saturday Schedule:Day Name
  57295fca-58e6-4d14-8e2b-0a7e50582ef8, !- Holiday Schedule:Day Name
  57295fca-58e6-4d14-8e2b-0a7e50582ef8, !- SummerDesignDay Schedule:Day Name
  57295fca-58e6-4d14-8e2b-0a7e50582ef8, !- WinterDesignDay Schedule:Day Name
  57295fca-58e6-4d14-8e2b-0a7e50582ef8, !- CustomDay1 Schedule:Day Name
  57295fca-58e6-4d14-8e2b-0a7e50582ef8; !- CustomDay2 Schedule:Day Name

Schedule:Week:Daily, CoolAvail_S17_0_46,
  47a75b71-2e69-4fe2-a5c7-3ae50deb6071, !- Sunday Schedule:Day Name
  b9fda6bb-e24d-488c-892a-f10f506fc230, !- Monday Schedule:Day Name
  2fa0508f-e059-4897-9b0f-80327699850d, !- Tuesday Schedule:Day Name
  fd7cf928-6442-4257-bec3-316041faf432, !- Wednesday Schedule:Day Name
  75772aa4-2169-4592-a0ce-d46cc9314986, !- Thursday Schedule:Day Name
  8cb39c06-89f5-4c77-a42c-1a61433c71ff, !- Friday Schedule:Day Name
  663d472e-7db6-4866-81e9-152baca2bb5c, !- Saturday Schedule:Day Name
  47a75b71-2e69-4fe2-a5c7-3ae50deb6071, !- Holiday Schedule:Day Name
  47a75b71-2e69-4fe2-a5c7-3ae50deb6071, !- SummerDesignDay Schedule:Day Name
  47a75b71-2e69-4fe2-a5c7-3ae50deb6071, !- WinterDesignDay Schedule:Day Name
  47a75b71-2e69-4fe2-a5c7-3ae50deb6071, !- CustomDay1 Schedule:Day Name
  47a75b71-2e69-4fe2-a5c7-3ae50deb6071; !- CustomDay2 Schedule:Day Name

Schedule:Week:Daily, CoolAvail_S17_0_47,
  38dbcb10-f1b6-49db-bbaf-37d28275cd1c, !- Sunday Schedule:Day Name
  fdf7142b-0f27-49ab-9552-cca525c0e781, !- Monday Schedule:Day Name
  630cffc9-27a1-4e7d-83ad-e732c21bbedd, !- Tuesday Schedule:Day Name
  f487e253-3329-4cee-a2fa-59b6e56d3a6b, !- Wednesday Schedule:Day Name
  b786cea4-8290-486e-a954-83d6796b3456, !- Thursday Schedule:Day Name
  c1f9b941-a352-4496-bdbd-2463ed4b9ab1, !- Friday Schedule:Day Name
  14a5ef99-5643-4d80-b06d-e77d933fda5a, !- Saturday Schedule:Day Name
  38dbcb10-f1b6-49db-bbaf-37d28275cd1c, !- Holiday Schedule:Day Name
  38dbcb10-f1b6-49db-bbaf-37d28275cd1c, !- SummerDesignDay Schedule:Day Name
  38dbcb10-f1b6-49db-bbaf-37d28275cd1c, !- WinterDesignDay Schedule:Day Name
  38dbcb10-f1b6-49db-bbaf-37d28275cd1c, !- CustomDay1 Schedule:Day Name
  38dbcb10-f1b6-49db-bbaf-37d28275cd1c; !- CustomDay2 Schedule:Day Name

Schedule:Week:Daily, CoolAvail_S17_0_48,
  50720eca-4dd0-476f-8dff-f0b3ebfa9f6c, !- Sunday Schedule:Day Name
  da0e3314-0b5b-406d-a1a1-5f33ee1c906a, !- Monday Schedule:Day Name
  89d1df51-448f-4462-a08b-a69803267a3f, !- Tuesday Schedule:Day Name
  9537ff6e-2588-4ef4-bda1-aa409aab7af1, !- Wednesday Schedule:Day Name
  f997d1c3-8c63-48e1-9552-ac3661c0fc7b, !- Thursday Schedule:Day Name
  39d59c97-67c6-4e2d-89ef-b1364d21566c, !- Friday Schedule:Day Name
  667c9cc7-522e-4738-a714-b7071c24d97f, !- Saturday Schedule:Day Name
  50720eca-4dd0-476f-8dff-f0b3ebfa9f6c, !- Holiday Schedule:Day Name
  50720eca-4dd0-476f-8dff-f0b3ebfa9f6c, !- SummerDesignDay Schedule:Day Name
  50720eca-4dd0-476f-8dff-f0b3ebfa9f6c, !- WinterDesignDay Schedule:Day Name
  50720eca-4dd0-476f-8dff-f0b3ebfa9f6c, !- CustomDay1 Schedule:Day Name
  50720eca-4dd0-476f-8dff-f0b3ebfa9f6c; !- CustomDay2 Schedule:Day Name

Schedule:Week:Daily, CoolAvail_S17_0_49,
  3d4f4472-d5aa-4ad2-8443-198db121f422, !- Sunday Schedule:Day Name
  180a5d12-98d8-4e0e-8838-d87546300336, !- Monday Schedule:Day Name
  3dd4e555-544e-4cd9-a547-b05d940d0038, !- Tuesday Schedule:Day Name
  563d61ce-fd75-496c-a24e-29445ff1effa, !- Wednesday Schedule:Day Name
  90f94ff6-ae47-4445-b2b6-431759312e56, !- Thursday Schedule:Day Name
  b1dc7f95-afd8-4535-baa3-e8295b537215, !- Friday Schedule:Day Name
  c309f14e-1ec3-436f-900e-69d25bdd1ce4, !- Saturday Schedule:Day Name
  3d4f4472-d5aa-4ad2-8443-198db121f422, !- Holiday Schedule:Day Name
  3d4f4472-d5aa-4ad2-8443-198db121f422, !- SummerDesignDay Schedule:Day Name
  3d4f4472-d5aa-4ad2-8443-198db121f422, !- WinterDesignDay Schedule:Day Name
  3d4f4472-d5aa-4ad2-8443-198db121f422, !- CustomDay1 Schedule:Day Name
  3d4f4472-d5aa-4ad2-8443-198db121f422; !- CustomDay2 Schedule:Day Name

Schedule:Week:Daily, CoolAvail_S17_0_50,
  f97f1995-aca2-4397-8431-f280c087ddb5, !- Sunday Schedule:Day Name
  26ee9eff-1623-47c5-839f-52054b0ed0af, !- Monday Schedule:Day Name
  1cdd53bd-e8d3-461e-bf4f-7a00374b1e25, !- Tuesday Schedule:Day Name
  24c2b1cc-3ca4-4dbe-b3a6-4996508fb32a, !- Wednesday Schedule:Day Name
  f8345422-929e-4881-9798-eaf8d1b45efc, !- Thursday Schedule:Day Name
  e1745905-e496-4db8-a954-e6b1f3073ce5, !- Friday Schedule:Day Name
  5bc440fc-95c4-4d35-92ac-8eced93f7308, !- Saturday Schedule:Day Name
  f97f1995-aca2-4397-8431-f280c087ddb5, !- Holiday Schedule:Day Name
  f97f1995-aca2-4397-8431-f280c087ddb5, !- SummerDesignDay Schedule:Day Name
  f97f1995-aca2-4397-8431-f280c087ddb5, !- WinterDesignDay Schedule:Day Name
  f97f1995-aca2-4397-8431-f280c087ddb5, !- CustomDay1 Schedule:Day Name
  f97f1995-aca2-4397-8431-f280c087ddb5; !- CustomDay2 Schedule:Day Name

Schedule:Week:Daily, CoolAvail_S17_0_51,
  5feac57b-c063-4623-b02a-96e1fc21173a, !- Sunday Schedule:Day Name
  cde5ef60-73dc-492f-9a8e-d230d940041c, !- Monday Schedule:Day Name
  dfd9d9d8-d60e-4dc5-b3ef-316737d7fdbc, !- Tuesday Schedule:Day Name
  6f84943a-9580-48f6-abb5-16b5c14ebb8c, !- Wednesday Schedule:Day Name
  96cc1cfd-33e8-48a0-ac5d-2f14c5bfd822, !- Thursday Schedule:Day Name
  a72a09e1-d220-4f93-bfda-8aa8ce1d154c, !- Friday Schedule:Day Name
  b4717505-3080-4605-921e-3500b5537a68, !- Saturday Schedule:Day Name
  5feac57b-c063-4623-b02a-96e1fc21173a, !- Holiday Schedule:Day Name
  5feac57b-c063-4623-b02a-96e1fc21173a, !- SummerDesignDay Schedule:Day Name
  5feac57b-c063-4623-b02a-96e1fc21173a, !- WinterDesignDay Schedule:Day Name
  5feac57b-c063-4623-b02a-96e1fc21173a, !- CustomDay1 Schedule:Day Name
  5feac57b-c063-4623-b02a-96e1fc21173a; !- CustomDay2 Schedule:Day Name

Schedule:Week:Daily, CoolAvail_S17_0_52,
  e05a56ec-6aa4-4702-90d9-f841ebf66855, !- Sunday Schedule:Day Name
  e05a56ec-6aa4-4702-90d9-f841ebf66855, !- Monday Schedule:Day Name
  e05a56ec-6aa4-4702-90d9-f841ebf66855, !- Tuesday Schedule:Day Name
  e05a56ec-6aa4-4702-90d9-f841ebf66855, !- Wednesday Schedule:Day Name
  e05a56ec-6aa4-4702-90d9-f841ebf66855, !- Thursday Schedule:Day Name
  e05a56ec-6aa4-4702-90d9-f841ebf66855, !- Friday Schedule:Day Name
  e05a56ec-6aa4-4702-90d9-f841ebf66855, !- Saturday Schedule:Day Name
  e05a56ec-6aa4-4702-90d9-f841ebf66855, !- Holiday Schedule:Day Name
  e05a56ec-6aa4-4702-90d9-f841ebf66855, !- SummerDesignDay Schedule:Day Name
  e05a56ec-6aa4-4702-90d9-f841ebf66855, !- WinterDesignDay Schedule:Day Name
  e05a56ec-6aa4-4702-90d9-f841ebf66855, !- CustomDay1 Schedule:Day Name
  e05a56ec-6aa4-4702-90d9-f841ebf66855; !- CustomDay2 Schedule:Day Name


Schedule:Year,MechVentAvail_S17_0,
Fraction,
MechVentAvail_S17_0_0,1,1,1,7, 
MechVentAvail_S17_0_1,1,8,1,14, 
MechVentAvail_S17_0_2,1,15,1,21, 
MechVentAvail_S17_0_3,1,22,1,28, 
MechVentAvail_S17_0_4,1,29,2,4, 
MechVentAvail_S17_0_5,2,5,2,11, 
MechVentAvail_S17_0_6,2,12,2,18, 
MechVentAvail_S17_0_7,2,19,2,25, 
MechVentAvail_S17_0_8,2,26,3,4, 
MechVentAvail_S17_0_9,3,5,3,11, 
MechVentAvail_S17_0_10,3,12,3,18, 
MechVentAvail_S17_0_11,3,19,3,25, 
MechVentAvail_S17_0_12,3,26,4,1, 
MechVentAvail_S17_0_13,4,2,4,8, 
MechVentAvail_S17_0_14,4,9,4,15, 
MechVentAvail_S17_0_15,4,16,4,22, 
MechVentAvail_S17_0_16,4,23,4,29, 
MechVentAvail_S17_0_17,4,30,5,6, 
MechVentAvail_S17_0_18,5,7,5,13, 
MechVentAvail_S17_0_19,5,14,5,20, 
MechVentAvail_S17_0_20,5,21,5,27, 
MechVentAvail_S17_0_21,5,28,6,3, 
MechVentAvail_S17_0_22,6,4,6,10, 
MechVentAvail_S17_0_23,6,11,6,17, 
MechVentAvail_S17_0_24,6,18,6,24, 
MechVentAvail_S17_0_25,6,25,7,1, 
MechVentAvail_S17_0_26,7,2,7,8, 
MechVentAvail_S17_0_27,7,9,7,15, 
MechVentAvail_S17_0_28,7,16,7,22, 
MechVentAvail_S17_0_29,7,23,7,29, 
MechVentAvail_S17_0_30,7,30,8,5, 
MechVentAvail_S17_0_31,8,6,8,12, 
MechVentAvail_S17_0_32,8,13,8,19, 
MechVentAvail_S17_0_33,8,20,8,26, 
MechVentAvail_S17_0_34,8,27,9,2, 
MechVentAvail_S17_0_35,9,3,9,9, 
MechVentAvail_S17_0_36,9,10,9,16, 
MechVentAvail_S17_0_37,9,17,9,23, 
MechVentAvail_S17_0_38,9,24,9,30, 
MechVentAvail_S17_0_39,10,1,10,7, 
MechVentAvail_S17_0_40,10,8,10,14, 
MechVentAvail_S17_0_41,10,15,10,21, 
MechVentAvail_S17_0_42,10,22,10,28, 
MechVentAvail_S17_0_43,10,29,11,4, 
MechVentAvail_S17_0_44,11,5,11,11, 
MechVentAvail_S17_0_45,11,12,11,18, 
MechVentAvail_S17_0_46,11,19,11,25, 
MechVentAvail_S17_0_47,11,26,12,2, 
MechVentAvail_S17_0_48,12,3,12,9, 
MechVentAvail_S17_0_49,12,10,12,16, 
MechVentAvail_S17_0_50,12,17,12,23, 
MechVentAvail_S17_0_51,12,24,12,30, 
MechVentAvail_S17_0_52,12,31,12,31;

Schedule:Week:Daily, MechVentAvail_S17_0_0,
  35e0ada2-1fee-451a-872b-049bc328d088, !- Sunday Schedule:Day Name
  22a1e51b-2093-4564-b5ed-ae6a32fcb6cb, !- Monday Schedule:Day Name
  18ce9471-8bdb-489d-965b-bcdf2857541a, !- Tuesday Schedule:Day Name
  93c71081-cbe4-4eb5-9f3c-f12a02c83db0, !- Wednesday Schedule:Day Name
  1f044a77-4373-4b65-9cfa-418fe716a1c5, !- Thursday Schedule:Day Name
  e560b093-007b-4360-b31a-7a0bf4edafff, !- Friday Schedule:Day Name
  1ec8c980-b02c-47a4-9524-b203a8ab2c3e, !- Saturday Schedule:Day Name
  35e0ada2-1fee-451a-872b-049bc328d088, !- Holiday Schedule:Day Name
  35e0ada2-1fee-451a-872b-049bc328d088, !- SummerDesignDay Schedule:Day Name
  35e0ada2-1fee-451a-872b-049bc328d088, !- WinterDesignDay Schedule:Day Name
  35e0ada2-1fee-451a-872b-049bc328d088, !- CustomDay1 Schedule:Day Name
  35e0ada2-1fee-451a-872b-049bc328d088; !- CustomDay2 Schedule:Day Name

Schedule:Week:Daily, MechVentAvail_S17_0_1,
  324a820c-9e79-4287-9929-5af24269ea02, !- Sunday Schedule:Day Name
  d2bd790c-733a-41eb-a348-2e58957206cc, !- Monday Schedule:Day Name
  b5ea207a-2cc6-4af2-9c60-944d1f007baf, !- Tuesday Schedule:Day Name
  0fb9e873-759a-4ed1-94f3-fcd0b80e411f, !- Wednesday Schedule:Day Name
  51f0ba7f-1edf-4522-935d-482393d8bc4a, !- Thursday Schedule:Day Name
  c8a7d920-df9d-4fb4-8e97-aad656506ff0, !- Friday Schedule:Day Name
  bfbfc2df-fa15-438a-b2dd-40b7ea6d6a0b, !- Saturday Schedule:Day Name
  324a820c-9e79-4287-9929-5af24269ea02, !- Holiday Schedule:Day Name
  324a820c-9e79-4287-9929-5af24269ea02, !- SummerDesignDay Schedule:Day Name
  324a820c-9e79-4287-9929-5af24269ea02, !- WinterDesignDay Schedule:Day Name
  324a820c-9e79-4287-9929-5af24269ea02, !- CustomDay1 Schedule:Day Name
  324a820c-9e79-4287-9929-5af24269ea02; !- CustomDay2 Schedule:Day Name

Schedule:Week:Daily, MechVentAvail_S17_0_2,
  c1428ebc-0e65-48db-aa2f-6f1fb31db145, !- Sunday Schedule:Day Name
  ce9b52fa-82e4-48d7-84cb-e3e2f4bd7fa5, !- Monday Schedule:Day Name
  51f0ba7f-1edf-4522-935d-482393d8bc4a, !- Tuesday Schedule:Day Name
  281b3a77-3921-41c9-87cf-cd3cf9a1d6b3, !- Wednesday Schedule:Day Name
  22a1e51b-2093-4564-b5ed-ae6a32fcb6cb, !- Thursday Schedule:Day Name
  d03e1a2a-7fdf-4387-9508-896c8563ea3d, !- Friday Schedule:Day Name
  cbcab192-8069-4d34-910e-4223db92558d, !- Saturday Schedule:Day Name
  c1428ebc-0e65-48db-aa2f-6f1fb31db145, !- Holiday Schedule:Day Name
  c1428ebc-0e65-48db-aa2f-6f1fb31db145, !- SummerDesignDay Schedule:Day Name
  c1428ebc-0e65-48db-aa2f-6f1fb31db145, !- WinterDesignDay Schedule:Day Name
  c1428ebc-0e65-48db-aa2f-6f1fb31db145, !- CustomDay1 Schedule:Day Name
  c1428ebc-0e65-48db-aa2f-6f1fb31db145; !- CustomDay2 Schedule:Day Name

Schedule:Week:Daily, MechVentAvail_S17_0_3,
  3374cfcf-e8ca-42e8-9193-67e36cd658cd, !- Sunday Schedule:Day Name
  9dc2f2c1-899f-4b0a-b792-ac2eeb1a4e6c, !- Monday Schedule:Day Name
  13054b51-3002-4484-aeba-b371d14d3692, !- Tuesday Schedule:Day Name
  b5e365fb-09dc-4d87-84ea-0cbd151cd866, !- Wednesday Schedule:Day Name
  019be431-dead-44d3-b7ce-a45f448d86cd, !- Thursday Schedule:Day Name
  35e0ada2-1fee-451a-872b-049bc328d088, !- Friday Schedule:Day Name
  ebf59084-486f-4765-8e31-6ab24806cde4, !- Saturday Schedule:Day Name
  3374cfcf-e8ca-42e8-9193-67e36cd658cd, !- Holiday Schedule:Day Name
  3374cfcf-e8ca-42e8-9193-67e36cd658cd, !- SummerDesignDay Schedule:Day Name
  3374cfcf-e8ca-42e8-9193-67e36cd658cd, !- WinterDesignDay Schedule:Day Name
  3374cfcf-e8ca-42e8-9193-67e36cd658cd, !- CustomDay1 Schedule:Day Name
  3374cfcf-e8ca-42e8-9193-67e36cd658cd; !- CustomDay2 Schedule:Day Name

Schedule:Week:Daily, MechVentAvail_S17_0_4,
  033443dd-be0d-481a-aa45-34e2afabf295, !- Sunday Schedule:Day Name
  b004ddaf-2958-4d42-bbfd-c34962752437, !- Monday Schedule:Day Name
  3118f7e2-22ff-41b2-8baa-8cf338a4d165, !- Tuesday Schedule:Day Name
  76cfda5b-3bcf-4091-91b8-c7317ff53b3f, !- Wednesday Schedule:Day Name
  dbd1f11d-7d18-4399-a402-b57c5d01dad8, !- Thursday Schedule:Day Name
  5d715e94-220a-4c54-8f28-ad7d20c66552, !- Friday Schedule:Day Name
  b004ddaf-2958-4d42-bbfd-c34962752437, !- Saturday Schedule:Day Name
  033443dd-be0d-481a-aa45-34e2afabf295, !- Holiday Schedule:Day Name
  033443dd-be0d-481a-aa45-34e2afabf295, !- SummerDesignDay Schedule:Day Name
  033443dd-be0d-481a-aa45-34e2afabf295, !- WinterDesignDay Schedule:Day Name
  033443dd-be0d-481a-aa45-34e2afabf295, !- CustomDay1 Schedule:Day Name
  033443dd-be0d-481a-aa45-34e2afabf295; !- CustomDay2 Schedule:Day Name

Schedule:Week:Daily, MechVentAvail_S17_0_5,
  037c2644-b41a-454e-919a-2fa64f1a5a72, !- Sunday Schedule:Day Name
  73acdd30-99d9-4ef9-a6ab-29992fc131c9, !- Monday Schedule:Day Name
  443bf915-bfa2-47cc-84e2-2f654a24a71c, !- Tuesday Schedule:Day Name
  0c0459a7-d2ea-4bfe-a1a3-77e345ad8887, !- Wednesday Schedule:Day Name
  d0d65797-fe6b-4387-b5c4-f17f0428ef62, !- Thursday Schedule:Day Name
  4ca48648-d144-4590-a357-3cf62a8bad81, !- Friday Schedule:Day Name
  6e51a55f-234d-41a8-9913-cb78d502f61b, !- Saturday Schedule:Day Name
  037c2644-b41a-454e-919a-2fa64f1a5a72, !- Holiday Schedule:Day Name
  037c2644-b41a-454e-919a-2fa64f1a5a72, !- SummerDesignDay Schedule:Day Name
  037c2644-b41a-454e-919a-2fa64f1a5a72, !- WinterDesignDay Schedule:Day Name
  037c2644-b41a-454e-919a-2fa64f1a5a72, !- CustomDay1 Schedule:Day Name
  037c2644-b41a-454e-919a-2fa64f1a5a72; !- CustomDay2 Schedule:Day Name

Schedule:Week:Daily, MechVentAvail_S17_0_6,
  6bc8c13f-a8d4-4816-8eb9-3ad649a8b2f3, !- Sunday Schedule:Day Name
  154ac6fe-8fb9-4f76-a37d-10a1e5069a27, !- Monday Schedule:Day Name
  5bef0665-6dfe-4b99-a0bc-786cea2c9cba, !- Tuesday Schedule:Day Name
  2f96a23a-caca-4fab-84d7-b9a738102c7e, !- Wednesday Schedule:Day Name
  bd2db91d-8010-46a7-ae1e-aebfe4473f82, !- Thursday Schedule:Day Name
  673fec01-a229-454e-ac97-ad268db4b5e5, !- Friday Schedule:Day Name
  328e2f82-dc52-4c28-ab51-245193f499f0, !- Saturday Schedule:Day Name
  6bc8c13f-a8d4-4816-8eb9-3ad649a8b2f3, !- Holiday Schedule:Day Name
  6bc8c13f-a8d4-4816-8eb9-3ad649a8b2f3, !- SummerDesignDay Schedule:Day Name
  6bc8c13f-a8d4-4816-8eb9-3ad649a8b2f3, !- WinterDesignDay Schedule:Day Name
  6bc8c13f-a8d4-4816-8eb9-3ad649a8b2f3, !- CustomDay1 Schedule:Day Name
  6bc8c13f-a8d4-4816-8eb9-3ad649a8b2f3; !- CustomDay2 Schedule:Day Name

Schedule:Week:Daily, MechVentAvail_S17_0_7,
  64b10d7a-e558-4ecf-9322-4c9a06b41c83, !- Sunday Schedule:Day Name
  b964e233-350c-48eb-b771-c4b9956ab54b, !- Monday Schedule:Day Name
  036865c2-b0aa-43ea-a3ae-c8f8331be7ac, !- Tuesday Schedule:Day Name
  daed71a7-0610-444b-b81c-b24dffd950f6, !- Wednesday Schedule:Day Name
  fbaf94e2-5723-47b8-90b1-441a046a4278, !- Thursday Schedule:Day Name
  8228bc38-434b-4133-9937-87d82ad577f0, !- Friday Schedule:Day Name
  b951dc44-e536-41f1-b4d8-aab17108d7f9, !- Saturday Schedule:Day Name
  64b10d7a-e558-4ecf-9322-4c9a06b41c83, !- Holiday Schedule:Day Name
  64b10d7a-e558-4ecf-9322-4c9a06b41c83, !- SummerDesignDay Schedule:Day Name
  64b10d7a-e558-4ecf-9322-4c9a06b41c83, !- WinterDesignDay Schedule:Day Name
  64b10d7a-e558-4ecf-9322-4c9a06b41c83, !- CustomDay1 Schedule:Day Name
  64b10d7a-e558-4ecf-9322-4c9a06b41c83; !- CustomDay2 Schedule:Day Name

Schedule:Week:Daily, MechVentAvail_S17_0_8,
  104cd10c-28f3-48c2-aed0-745cf36fea65, !- Sunday Schedule:Day Name
  d6b4219d-073c-4d59-80b7-35fc61c1e207, !- Monday Schedule:Day Name
  401568ae-5745-4f16-bda9-d9aedd726401, !- Tuesday Schedule:Day Name
  49ce4846-11b3-4de5-90ef-fc16ec9d5b6d, !- Wednesday Schedule:Day Name
  fcde42c5-a226-4b21-a0d2-13213f855b12, !- Thursday Schedule:Day Name
  542cb977-cef9-4e33-8f3a-5abd994fb8eb, !- Friday Schedule:Day Name
  e51780fd-68b9-485c-b53b-41d4aa329173, !- Saturday Schedule:Day Name
  104cd10c-28f3-48c2-aed0-745cf36fea65, !- Holiday Schedule:Day Name
  104cd10c-28f3-48c2-aed0-745cf36fea65, !- SummerDesignDay Schedule:Day Name
  104cd10c-28f3-48c2-aed0-745cf36fea65, !- WinterDesignDay Schedule:Day Name
  104cd10c-28f3-48c2-aed0-745cf36fea65, !- CustomDay1 Schedule:Day Name
  104cd10c-28f3-48c2-aed0-745cf36fea65; !- CustomDay2 Schedule:Day Name

Schedule:Week:Daily, MechVentAvail_S17_0_9,
  84655766-7118-4a80-a644-6c94a8cf6aa8, !- Sunday Schedule:Day Name
  f23e91b1-e21c-4567-9c25-f2b87eda8942, !- Monday Schedule:Day Name
  e51780fd-68b9-485c-b53b-41d4aa329173, !- Tuesday Schedule:Day Name
  2cbaec49-f577-4647-b3ed-73b7f9b900fd, !- Wednesday Schedule:Day Name
  f5d9dffc-fe21-496e-b55e-d684c3337099, !- Thursday Schedule:Day Name
  bd5b1cea-c878-4f3e-aec0-c2ac0ba00ee3, !- Friday Schedule:Day Name
  720da34d-5d68-461d-bdb9-e02285c661a7, !- Saturday Schedule:Day Name
  84655766-7118-4a80-a644-6c94a8cf6aa8, !- Holiday Schedule:Day Name
  84655766-7118-4a80-a644-6c94a8cf6aa8, !- SummerDesignDay Schedule:Day Name
  84655766-7118-4a80-a644-6c94a8cf6aa8, !- WinterDesignDay Schedule:Day Name
  84655766-7118-4a80-a644-6c94a8cf6aa8, !- CustomDay1 Schedule:Day Name
  84655766-7118-4a80-a644-6c94a8cf6aa8; !- CustomDay2 Schedule:Day Name

Schedule:Week:Daily, MechVentAvail_S17_0_10,
  a4b975cc-a5df-49b6-abae-d9247bb6c1d3, !- Sunday Schedule:Day Name
  e51780fd-68b9-485c-b53b-41d4aa329173, !- Monday Schedule:Day Name
  05eb5a75-9c5d-4888-a75e-297719e52851, !- Tuesday Schedule:Day Name
  3d478d37-2a01-4d7a-8394-87f420d4056f, !- Wednesday Schedule:Day Name
  bb5da403-a042-4ac0-830c-c49b77a5b3c6, !- Thursday Schedule:Day Name
  144b99c6-371d-4e34-96fd-79be05b5df0d, !- Friday Schedule:Day Name
  101a4458-ffe6-4b53-8dd8-2467d667ba35, !- Saturday Schedule:Day Name
  a4b975cc-a5df-49b6-abae-d9247bb6c1d3, !- Holiday Schedule:Day Name
  a4b975cc-a5df-49b6-abae-d9247bb6c1d3, !- SummerDesignDay Schedule:Day Name
  a4b975cc-a5df-49b6-abae-d9247bb6c1d3, !- WinterDesignDay Schedule:Day Name
  a4b975cc-a5df-49b6-abae-d9247bb6c1d3, !- CustomDay1 Schedule:Day Name
  a4b975cc-a5df-49b6-abae-d9247bb6c1d3; !- CustomDay2 Schedule:Day Name

Schedule:Week:Daily, MechVentAvail_S17_0_11,
  e51780fd-68b9-485c-b53b-41d4aa329173, !- Sunday Schedule:Day Name
  d3e8e271-9eeb-4542-a96c-283e1dd3b835, !- Monday Schedule:Day Name
  6d3bdc77-4564-471a-929c-e30b6d66f166, !- Tuesday Schedule:Day Name
  4dec3c6f-ebbe-4840-a156-b83b58bf089e, !- Wednesday Schedule:Day Name
  bcd3defc-df3e-4200-aec8-a559f004c132, !- Thursday Schedule:Day Name
  a24f8b0f-d930-4ec6-852d-d49dbee14f27, !- Friday Schedule:Day Name
  a3c9ef1d-5eb3-489d-aa31-011d2b399981, !- Saturday Schedule:Day Name
  e51780fd-68b9-485c-b53b-41d4aa329173, !- Holiday Schedule:Day Name
  e51780fd-68b9-485c-b53b-41d4aa329173, !- SummerDesignDay Schedule:Day Name
  e51780fd-68b9-485c-b53b-41d4aa329173, !- WinterDesignDay Schedule:Day Name
  e51780fd-68b9-485c-b53b-41d4aa329173, !- CustomDay1 Schedule:Day Name
  e51780fd-68b9-485c-b53b-41d4aa329173; !- CustomDay2 Schedule:Day Name

Schedule:Week:Daily, MechVentAvail_S17_0_12,
  40cf7150-3db1-49aa-a175-be7604a9d796, !- Sunday Schedule:Day Name
  597e3bcf-50a5-4cee-bcda-a732ee54fb23, !- Monday Schedule:Day Name
  0c51b05c-c17b-42b0-8bf1-f191514907be, !- Tuesday Schedule:Day Name
  70282c88-819a-4162-8587-557ea488a8a5, !- Wednesday Schedule:Day Name
  d17734a9-dc6c-469e-8905-0c99d4a1be19, !- Thursday Schedule:Day Name
  5952833e-0dd6-4ae0-bab6-279d1a92a5dd, !- Friday Schedule:Day Name
  47d8ac42-281f-4586-a929-903761bdd1a7, !- Saturday Schedule:Day Name
  40cf7150-3db1-49aa-a175-be7604a9d796, !- Holiday Schedule:Day Name
  40cf7150-3db1-49aa-a175-be7604a9d796, !- SummerDesignDay Schedule:Day Name
  40cf7150-3db1-49aa-a175-be7604a9d796, !- WinterDesignDay Schedule:Day Name
  40cf7150-3db1-49aa-a175-be7604a9d796, !- CustomDay1 Schedule:Day Name
  40cf7150-3db1-49aa-a175-be7604a9d796; !- CustomDay2 Schedule:Day Name

Schedule:Week:Daily, MechVentAvail_S17_0_13,
  186611b7-1db5-4e3a-8355-d0dec1fedc26, !- Sunday Schedule:Day Name
  84098980-877e-4635-a828-91e21f81b511, !- Monday Schedule:Day Name
  03b0116c-4688-4797-a88d-1b1f29f30a07, !- Tuesday Schedule:Day Name
  bd368ace-ef05-4c35-a01c-8a563ed94cf9, !- Wednesday Schedule:Day Name
  e1601026-7a88-4fbe-9fa2-717b51dc1f14, !- Thursday Schedule:Day Name
  bb575d25-fef9-4371-8b21-18cc0cde7ad8, !- Friday Schedule:Day Name
  56f694f2-8025-4063-bb34-8da1a62c7792, !- Saturday Schedule:Day Name
  186611b7-1db5-4e3a-8355-d0dec1fedc26, !- Holiday Schedule:Day Name
  186611b7-1db5-4e3a-8355-d0dec1fedc26, !- SummerDesignDay Schedule:Day Name
  186611b7-1db5-4e3a-8355-d0dec1fedc26, !- WinterDesignDay Schedule:Day Name
  186611b7-1db5-4e3a-8355-d0dec1fedc26, !- CustomDay1 Schedule:Day Name
  186611b7-1db5-4e3a-8355-d0dec1fedc26; !- CustomDay2 Schedule:Day Name

Schedule:Week:Daily, MechVentAvail_S17_0_14,
  c75b36c4-872b-4d70-8e66-6397ceceeee9, !- Sunday Schedule:Day Name
  d8146e5e-3f8d-44b3-8039-e293e5046815, !- Monday Schedule:Day Name
  aa027ed6-10fd-491e-b979-7c4df764123a, !- Tuesday Schedule:Day Name
  5b8cced1-8d09-420b-bea1-3bcd082d2a59, !- Wednesday Schedule:Day Name
  aaadf03e-f1ed-4584-b967-708c863af830, !- Thursday Schedule:Day Name
  9271a65d-f0a2-4518-ab25-2b1222f43614, !- Friday Schedule:Day Name
  a03383d5-79b0-4cc1-9102-54055f6fa786, !- Saturday Schedule:Day Name
  c75b36c4-872b-4d70-8e66-6397ceceeee9, !- Holiday Schedule:Day Name
  c75b36c4-872b-4d70-8e66-6397ceceeee9, !- SummerDesignDay Schedule:Day Name
  c75b36c4-872b-4d70-8e66-6397ceceeee9, !- WinterDesignDay Schedule:Day Name
  c75b36c4-872b-4d70-8e66-6397ceceeee9, !- CustomDay1 Schedule:Day Name
  c75b36c4-872b-4d70-8e66-6397ceceeee9; !- CustomDay2 Schedule:Day Name

Schedule:Week:Daily, MechVentAvail_S17_0_15,
  d9bd1216-b212-4bb2-9107-dec962127257, !- Sunday Schedule:Day Name
  2c3b5ebd-3111-4c17-b66e-443d69483076, !- Monday Schedule:Day Name
  263132f3-57e5-4e7f-9b16-8f6529a17f7c, !- Tuesday Schedule:Day Name
  1b73200d-bde2-4e65-af20-2fa226fcb48a, !- Wednesday Schedule:Day Name
  8635af30-c595-4629-9129-95f505b9506e, !- Thursday Schedule:Day Name
  ad4a0e78-dd8a-4dbe-b05a-ba8400d12c34, !- Friday Schedule:Day Name
  36c5c6dd-eb97-4d93-bd78-dbd075d1ee1b, !- Saturday Schedule:Day Name
  d9bd1216-b212-4bb2-9107-dec962127257, !- Holiday Schedule:Day Name
  d9bd1216-b212-4bb2-9107-dec962127257, !- SummerDesignDay Schedule:Day Name
  d9bd1216-b212-4bb2-9107-dec962127257, !- WinterDesignDay Schedule:Day Name
  d9bd1216-b212-4bb2-9107-dec962127257, !- CustomDay1 Schedule:Day Name
  d9bd1216-b212-4bb2-9107-dec962127257; !- CustomDay2 Schedule:Day Name

Schedule:Week:Daily, MechVentAvail_S17_0_16,
  5111b8af-08af-4e27-b4db-bae5f85f107f, !- Sunday Schedule:Day Name
  e6003aaa-db7a-4cde-babe-521403300f0f, !- Monday Schedule:Day Name
  d42c45ce-fbda-4b08-bce1-e1fdf0205d69, !- Tuesday Schedule:Day Name
  bdf076c8-aa22-4d61-b4fc-447625afc682, !- Wednesday Schedule:Day Name
  b9d22d3b-71d2-4377-8607-78e92197aa42, !- Thursday Schedule:Day Name
  2e7f09d8-3a33-4b4e-8b59-d441d2a0bb7c, !- Friday Schedule:Day Name
  2c4de5b4-676e-43c5-8055-8066f0c48a3f, !- Saturday Schedule:Day Name
  5111b8af-08af-4e27-b4db-bae5f85f107f, !- Holiday Schedule:Day Name
  5111b8af-08af-4e27-b4db-bae5f85f107f, !- SummerDesignDay Schedule:Day Name
  5111b8af-08af-4e27-b4db-bae5f85f107f, !- WinterDesignDay Schedule:Day Name
  5111b8af-08af-4e27-b4db-bae5f85f107f, !- CustomDay1 Schedule:Day Name
  5111b8af-08af-4e27-b4db-bae5f85f107f; !- CustomDay2 Schedule:Day Name

Schedule:Week:Daily, MechVentAvail_S17_0_17,
  8e029877-b215-471b-a3d8-5c1cc8bc365b, !- Sunday Schedule:Day Name
  c8cde78c-e308-450c-a688-6e47071ecba6, !- Monday Schedule:Day Name
  f87c2997-4a22-4960-99c3-c290975bd6d5, !- Tuesday Schedule:Day Name
  4f585860-18b9-4ac7-aa09-0524684b216c, !- Wednesday Schedule:Day Name
  92a99a64-2e8a-47e6-bd10-86ae4ffcd058, !- Thursday Schedule:Day Name
  a9581180-73f1-445c-b220-8a3599919bc0, !- Friday Schedule:Day Name
  ffe9693d-cba8-4656-ba5e-c0fcf7cfd1aa, !- Saturday Schedule:Day Name
  8e029877-b215-471b-a3d8-5c1cc8bc365b, !- Holiday Schedule:Day Name
  8e029877-b215-471b-a3d8-5c1cc8bc365b, !- SummerDesignDay Schedule:Day Name
  8e029877-b215-471b-a3d8-5c1cc8bc365b, !- WinterDesignDay Schedule:Day Name
  8e029877-b215-471b-a3d8-5c1cc8bc365b, !- CustomDay1 Schedule:Day Name
  8e029877-b215-471b-a3d8-5c1cc8bc365b; !- CustomDay2 Schedule:Day Name

Schedule:Week:Daily, MechVentAvail_S17_0_18,
  e7d0f24e-2a79-449a-b914-825c02bf48bf, !- Sunday Schedule:Day Name
  32b8ac8a-0c12-4924-b2f7-85b381cd1c16, !- Monday Schedule:Day Name
  4b87aed5-e8ee-4a6f-b250-1005cea65da3, !- Tuesday Schedule:Day Name
  e7d0f24e-2a79-449a-b914-825c02bf48bf, !- Wednesday Schedule:Day Name
  0aaa7bcc-497a-4607-aca6-c96565fd58ed, !- Thursday Schedule:Day Name
  24cd38cf-6549-4cde-b228-82bc1c773714, !- Friday Schedule:Day Name
  93429806-64e9-4ef9-a993-53d9ea7bfa59, !- Saturday Schedule:Day Name
  e7d0f24e-2a79-449a-b914-825c02bf48bf, !- Holiday Schedule:Day Name
  e7d0f24e-2a79-449a-b914-825c02bf48bf, !- SummerDesignDay Schedule:Day Name
  e7d0f24e-2a79-449a-b914-825c02bf48bf, !- WinterDesignDay Schedule:Day Name
  e7d0f24e-2a79-449a-b914-825c02bf48bf, !- CustomDay1 Schedule:Day Name
  e7d0f24e-2a79-449a-b914-825c02bf48bf; !- CustomDay2 Schedule:Day Name

Schedule:Week:Daily, MechVentAvail_S17_0_19,
  b1ad10cd-9f4f-4c01-90f3-a9fc60b02d29, !- Sunday Schedule:Day Name
  1f6dd566-09e1-4fab-9511-350aed55dfb4, !- Monday Schedule:Day Name
  993e9391-22bb-4028-8e26-d2a81c76591b, !- Tuesday Schedule:Day Name
  1cf3126f-f758-4047-aff0-bca489412336, !- Wednesday Schedule:Day Name
  39b771b2-a980-4721-9fbd-bb82bc33320a, !- Thursday Schedule:Day Name
  1fca9003-f92a-40b5-9276-8de7f9229d0e, !- Friday Schedule:Day Name
  bf69910e-302e-4d5d-8f7b-2db65928aae6, !- Saturday Schedule:Day Name
  b1ad10cd-9f4f-4c01-90f3-a9fc60b02d29, !- Holiday Schedule:Day Name
  b1ad10cd-9f4f-4c01-90f3-a9fc60b02d29, !- SummerDesignDay Schedule:Day Name
  b1ad10cd-9f4f-4c01-90f3-a9fc60b02d29, !- WinterDesignDay Schedule:Day Name
  b1ad10cd-9f4f-4c01-90f3-a9fc60b02d29, !- CustomDay1 Schedule:Day Name
  b1ad10cd-9f4f-4c01-90f3-a9fc60b02d29; !- CustomDay2 Schedule:Day Name

Schedule:Week:Daily, MechVentAvail_S17_0_20,
  1ddc7ad3-d268-423d-b9ef-a5decc2562e4, !- Sunday Schedule:Day Name
  faaa7842-4c6c-4ef7-afeb-d61a35a55d33, !- Monday Schedule:Day Name
  b1ad10cd-9f4f-4c01-90f3-a9fc60b02d29, !- Tuesday Schedule:Day Name
  657eb751-9b13-44ce-9e96-2a48266ff616, !- Wednesday Schedule:Day Name
  af898841-d3d3-4b33-9f52-789d41f2738b, !- Thursday Schedule:Day Name
  fd688387-9499-4591-a57c-4b70abe1bad6, !- Friday Schedule:Day Name
  2d760525-19a6-48a2-aa2b-80dd83e4684c, !- Saturday Schedule:Day Name
  1ddc7ad3-d268-423d-b9ef-a5decc2562e4, !- Holiday Schedule:Day Name
  1ddc7ad3-d268-423d-b9ef-a5decc2562e4, !- SummerDesignDay Schedule:Day Name
  1ddc7ad3-d268-423d-b9ef-a5decc2562e4, !- WinterDesignDay Schedule:Day Name
  1ddc7ad3-d268-423d-b9ef-a5decc2562e4, !- CustomDay1 Schedule:Day Name
  1ddc7ad3-d268-423d-b9ef-a5decc2562e4; !- CustomDay2 Schedule:Day Name

Schedule:Week:Daily, MechVentAvail_S17_0_21,
  674b4eaa-2aa8-4d6a-957b-2815946675b6, !- Sunday Schedule:Day Name
  73acdd30-99d9-4ef9-a6ab-29992fc131c9, !- Monday Schedule:Day Name
  88dae2dc-b2b6-483f-aad9-57490e7ec9bf, !- Tuesday Schedule:Day Name
  3e5202b2-92b1-4bd3-b872-ac2f51082082, !- Wednesday Schedule:Day Name
  5fa37d88-9791-4811-b504-9434ee3b7cc9, !- Thursday Schedule:Day Name
  bcfbfcb5-970f-4759-8ff8-104563bd61c5, !- Friday Schedule:Day Name
  9bfe587a-8cee-4c54-b5fe-e9048f15d1c4, !- Saturday Schedule:Day Name
  674b4eaa-2aa8-4d6a-957b-2815946675b6, !- Holiday Schedule:Day Name
  674b4eaa-2aa8-4d6a-957b-2815946675b6, !- SummerDesignDay Schedule:Day Name
  674b4eaa-2aa8-4d6a-957b-2815946675b6, !- WinterDesignDay Schedule:Day Name
  674b4eaa-2aa8-4d6a-957b-2815946675b6, !- CustomDay1 Schedule:Day Name
  674b4eaa-2aa8-4d6a-957b-2815946675b6; !- CustomDay2 Schedule:Day Name

Schedule:Week:Daily, MechVentAvail_S17_0_22,
  84ccb1a8-6ff8-454e-a66c-c8c71aed1be8, !- Sunday Schedule:Day Name
  9c0c3f4b-d4a6-4dee-9c4d-c9b7b78d7c47, !- Monday Schedule:Day Name
  6896cc22-7d9c-40a6-8f16-9a0ea75945f6, !- Tuesday Schedule:Day Name
  62ef4096-a4e5-444d-bcbb-7f82a5c35e1a, !- Wednesday Schedule:Day Name
  2f7a5285-7309-4b83-95e1-5d5cfa6285ab, !- Thursday Schedule:Day Name
  d2f2f440-4eff-4442-9606-db8f940ce1ef, !- Friday Schedule:Day Name
  a30d819a-71b9-42c9-8859-ec36a8cf5ef9, !- Saturday Schedule:Day Name
  84ccb1a8-6ff8-454e-a66c-c8c71aed1be8, !- Holiday Schedule:Day Name
  84ccb1a8-6ff8-454e-a66c-c8c71aed1be8, !- SummerDesignDay Schedule:Day Name
  84ccb1a8-6ff8-454e-a66c-c8c71aed1be8, !- WinterDesignDay Schedule:Day Name
  84ccb1a8-6ff8-454e-a66c-c8c71aed1be8, !- CustomDay1 Schedule:Day Name
  84ccb1a8-6ff8-454e-a66c-c8c71aed1be8; !- CustomDay2 Schedule:Day Name

Schedule:Week:Daily, MechVentAvail_S17_0_23,
  14c777df-a2c5-4c2f-bb9e-070d2fbe33cf, !- Sunday Schedule:Day Name
  660652b9-3721-4b41-99dc-b03b67c93e71, !- Monday Schedule:Day Name
  3b91de32-229d-44a8-aa6d-28e4ecfa2c41, !- Tuesday Schedule:Day Name
  c4d38773-d9ac-4b7a-ab6d-3e1d3619054b, !- Wednesday Schedule:Day Name
  3da5c000-3493-4a5d-90ba-b15c4c908312, !- Thursday Schedule:Day Name
  4485477b-6b4d-4f2f-af3b-db664b62b9fd, !- Friday Schedule:Day Name
  243a0351-07d0-4e53-9c2b-3f13525cdd30, !- Saturday Schedule:Day Name
  14c777df-a2c5-4c2f-bb9e-070d2fbe33cf, !- Holiday Schedule:Day Name
  14c777df-a2c5-4c2f-bb9e-070d2fbe33cf, !- SummerDesignDay Schedule:Day Name
  14c777df-a2c5-4c2f-bb9e-070d2fbe33cf, !- WinterDesignDay Schedule:Day Name
  14c777df-a2c5-4c2f-bb9e-070d2fbe33cf, !- CustomDay1 Schedule:Day Name
  14c777df-a2c5-4c2f-bb9e-070d2fbe33cf; !- CustomDay2 Schedule:Day Name

Schedule:Week:Daily, MechVentAvail_S17_0_24,
  ad7e3b5e-c18f-4ffb-95a0-f826f2483b09, !- Sunday Schedule:Day Name
  28ec533d-432d-49b4-978b-de4e0cbf42eb, !- Monday Schedule:Day Name
  ba25d5d5-5386-42b3-a132-874a2e86e97f, !- Tuesday Schedule:Day Name
  ad21c7c2-1df8-489a-94d8-c8b1ac079d80, !- Wednesday Schedule:Day Name
  7ca5b782-b2c2-4ebd-9b04-9f59a634770c, !- Thursday Schedule:Day Name
  c7d08f1d-b857-4d15-bfd6-e455226b22ad, !- Friday Schedule:Day Name
  460d9812-1e10-4f3f-bbaf-33d8d5a661d0, !- Saturday Schedule:Day Name
  ad7e3b5e-c18f-4ffb-95a0-f826f2483b09, !- Holiday Schedule:Day Name
  ad7e3b5e-c18f-4ffb-95a0-f826f2483b09, !- SummerDesignDay Schedule:Day Name
  ad7e3b5e-c18f-4ffb-95a0-f826f2483b09, !- WinterDesignDay Schedule:Day Name
  ad7e3b5e-c18f-4ffb-95a0-f826f2483b09, !- CustomDay1 Schedule:Day Name
  ad7e3b5e-c18f-4ffb-95a0-f826f2483b09; !- CustomDay2 Schedule:Day Name

Schedule:Week:Daily, MechVentAvail_S17_0_25,
  ef5c960d-f105-439e-8330-a7b7c658db9c, !- Sunday Schedule:Day Name
  e26bd28e-f679-40df-93e8-6b434ca271d5, !- Monday Schedule:Day Name
  a4e0b79d-80da-4a7b-8d59-48567f5602fe, !- Tuesday Schedule:Day Name
  7ea5de64-d697-454c-a98f-be79bc611366, !- Wednesday Schedule:Day Name
  a53ca86f-7009-49da-825f-5cb0102909fa, !- Thursday Schedule:Day Name
  26cfb7eb-76ab-47bc-aa42-0c9ff96b8a4d, !- Friday Schedule:Day Name
  425ba9f7-c8d1-4060-ac42-2211b0350688, !- Saturday Schedule:Day Name
  ef5c960d-f105-439e-8330-a7b7c658db9c, !- Holiday Schedule:Day Name
  ef5c960d-f105-439e-8330-a7b7c658db9c, !- SummerDesignDay Schedule:Day Name
  ef5c960d-f105-439e-8330-a7b7c658db9c, !- WinterDesignDay Schedule:Day Name
  ef5c960d-f105-439e-8330-a7b7c658db9c, !- CustomDay1 Schedule:Day Name
  ef5c960d-f105-439e-8330-a7b7c658db9c; !- CustomDay2 Schedule:Day Name

Schedule:Week:Daily, MechVentAvail_S17_0_26,
  49835cdc-4148-4331-bee0-f7c8662ee433, !- Sunday Schedule:Day Name
  11256a9a-c2b2-4ac5-b30d-246abc56750b, !- Monday Schedule:Day Name
  5109f2aa-8969-47a7-9f32-6cc3f5138566, !- Tuesday Schedule:Day Name
  56ad522b-182b-490b-9b25-f45cb2f8a837, !- Wednesday Schedule:Day Name
  16d47b23-c498-49ed-9a5f-c29565e037f6, !- Thursday Schedule:Day Name
  0131145e-e660-43d2-bbe1-57789cf025ac, !- Friday Schedule:Day Name
  9288f4fb-3710-4ef5-b1e0-d82ae9ef9568, !- Saturday Schedule:Day Name
  49835cdc-4148-4331-bee0-f7c8662ee433, !- Holiday Schedule:Day Name
  49835cdc-4148-4331-bee0-f7c8662ee433, !- SummerDesignDay Schedule:Day Name
  49835cdc-4148-4331-bee0-f7c8662ee433, !- WinterDesignDay Schedule:Day Name
  49835cdc-4148-4331-bee0-f7c8662ee433, !- CustomDay1 Schedule:Day Name
  49835cdc-4148-4331-bee0-f7c8662ee433; !- CustomDay2 Schedule:Day Name

Schedule:Week:Daily, MechVentAvail_S17_0_27,
  13a9b8c3-8a91-4b57-aaae-bc0171401b73, !- Sunday Schedule:Day Name
  a1009dd8-b065-4024-9c5c-a666e5a5dde4, !- Monday Schedule:Day Name
  d2cb975e-019b-47da-baad-3492641b1a29, !- Tuesday Schedule:Day Name
  f4e80c03-37c0-4f65-acb0-42164b2fc30b, !- Wednesday Schedule:Day Name
  c70578a4-4172-476c-b90b-dbb9edc7dbdc, !- Thursday Schedule:Day Name
  a4d70ece-0924-45f6-b91d-eefd13a1c80d, !- Friday Schedule:Day Name
  f782a7c3-4e24-47b9-8f29-5344f282bd47, !- Saturday Schedule:Day Name
  13a9b8c3-8a91-4b57-aaae-bc0171401b73, !- Holiday Schedule:Day Name
  13a9b8c3-8a91-4b57-aaae-bc0171401b73, !- SummerDesignDay Schedule:Day Name
  13a9b8c3-8a91-4b57-aaae-bc0171401b73, !- WinterDesignDay Schedule:Day Name
  13a9b8c3-8a91-4b57-aaae-bc0171401b73, !- CustomDay1 Schedule:Day Name
  13a9b8c3-8a91-4b57-aaae-bc0171401b73; !- CustomDay2 Schedule:Day Name

Schedule:Week:Daily, MechVentAvail_S17_0_28,
  4aae5b26-c82e-4dd8-afd6-79a1854a4c24, !- Sunday Schedule:Day Name
  2845129c-7200-44b2-9073-178af05f6f7c, !- Monday Schedule:Day Name
  11dd7ce0-b4ae-4092-b44f-28a39006776f, !- Tuesday Schedule:Day Name
  59cdf5f3-626f-4c03-8f86-27c54c15e6bc, !- Wednesday Schedule:Day Name
  4f585860-18b9-4ac7-aa09-0524684b216c, !- Thursday Schedule:Day Name
  f7b1d11e-415e-40ca-a212-de9acd9689d6, !- Friday Schedule:Day Name
  674b4eaa-2aa8-4d6a-957b-2815946675b6, !- Saturday Schedule:Day Name
  4aae5b26-c82e-4dd8-afd6-79a1854a4c24, !- Holiday Schedule:Day Name
  4aae5b26-c82e-4dd8-afd6-79a1854a4c24, !- SummerDesignDay Schedule:Day Name
  4aae5b26-c82e-4dd8-afd6-79a1854a4c24, !- WinterDesignDay Schedule:Day Name
  4aae5b26-c82e-4dd8-afd6-79a1854a4c24, !- CustomDay1 Schedule:Day Name
  4aae5b26-c82e-4dd8-afd6-79a1854a4c24; !- CustomDay2 Schedule:Day Name

Schedule:Week:Daily, MechVentAvail_S17_0_29,
  3dd9e6cd-de7c-4632-8e09-4da419557454, !- Sunday Schedule:Day Name
  6cf8b87a-2efc-4c8b-846c-dbd84e0dfbf2, !- Monday Schedule:Day Name
  64cbd1fc-1db1-4998-8b02-a684e0690a59, !- Tuesday Schedule:Day Name
  973136e5-7eaf-48f7-b915-6c9a37701442, !- Wednesday Schedule:Day Name
  4f585860-18b9-4ac7-aa09-0524684b216c, !- Thursday Schedule:Day Name
  4f585860-18b9-4ac7-aa09-0524684b216c, !- Friday Schedule:Day Name
  e4a2ab30-1faa-4ef8-825b-335844a9c8b1, !- Saturday Schedule:Day Name
  3dd9e6cd-de7c-4632-8e09-4da419557454, !- Holiday Schedule:Day Name
  3dd9e6cd-de7c-4632-8e09-4da419557454, !- SummerDesignDay Schedule:Day Name
  3dd9e6cd-de7c-4632-8e09-4da419557454, !- WinterDesignDay Schedule:Day Name
  3dd9e6cd-de7c-4632-8e09-4da419557454, !- CustomDay1 Schedule:Day Name
  3dd9e6cd-de7c-4632-8e09-4da419557454; !- CustomDay2 Schedule:Day Name

Schedule:Week:Daily, MechVentAvail_S17_0_30,
  382cd65b-8ca2-4f2f-ae42-58c248ed6a25, !- Sunday Schedule:Day Name
  e51780fd-68b9-485c-b53b-41d4aa329173, !- Monday Schedule:Day Name
  4f1fe2c2-a220-4c87-91ab-9887e1e74f2c, !- Tuesday Schedule:Day Name
  404c002d-f548-4d23-86b3-a2114c99788d, !- Wednesday Schedule:Day Name
  2b6407cb-7b23-4944-b2f8-6b6add0085de, !- Thursday Schedule:Day Name
  7bdb7382-c11b-47d1-a991-071ec3c919f0, !- Friday Schedule:Day Name
  109da854-8c3a-4e1c-8ab1-9de36e825529, !- Saturday Schedule:Day Name
  382cd65b-8ca2-4f2f-ae42-58c248ed6a25, !- Holiday Schedule:Day Name
  382cd65b-8ca2-4f2f-ae42-58c248ed6a25, !- SummerDesignDay Schedule:Day Name
  382cd65b-8ca2-4f2f-ae42-58c248ed6a25, !- WinterDesignDay Schedule:Day Name
  382cd65b-8ca2-4f2f-ae42-58c248ed6a25, !- CustomDay1 Schedule:Day Name
  382cd65b-8ca2-4f2f-ae42-58c248ed6a25; !- CustomDay2 Schedule:Day Name

Schedule:Week:Daily, MechVentAvail_S17_0_31,
  46637283-3775-4203-899c-fd808efceca8, !- Sunday Schedule:Day Name
  657eb751-9b13-44ce-9e96-2a48266ff616, !- Monday Schedule:Day Name
  64cbd1fc-1db1-4998-8b02-a684e0690a59, !- Tuesday Schedule:Day Name
  8c4d05c7-5cf0-4f0c-81c6-a955a40e5b32, !- Wednesday Schedule:Day Name
  dbd2f23c-5e40-44eb-aa9c-d96a30dcd641, !- Thursday Schedule:Day Name
  b4717505-3080-4605-921e-3500b5537a68, !- Friday Schedule:Day Name
  26ddad88-262f-4052-b9cd-acf6b78effdf, !- Saturday Schedule:Day Name
  46637283-3775-4203-899c-fd808efceca8, !- Holiday Schedule:Day Name
  46637283-3775-4203-899c-fd808efceca8, !- SummerDesignDay Schedule:Day Name
  46637283-3775-4203-899c-fd808efceca8, !- WinterDesignDay Schedule:Day Name
  46637283-3775-4203-899c-fd808efceca8, !- CustomDay1 Schedule:Day Name
  46637283-3775-4203-899c-fd808efceca8; !- CustomDay2 Schedule:Day Name

Schedule:Week:Daily, MechVentAvail_S17_0_32,
  cd6e4dc1-4d21-4f61-a705-2eb9fba18fde, !- Sunday Schedule:Day Name
  125c1e64-bc49-4757-8d04-a9078fa8e63b, !- Monday Schedule:Day Name
  0a2793f6-6b94-45ca-8b08-dc81659b7e8e, !- Tuesday Schedule:Day Name
  a433db04-20cc-4a49-86f1-28c7bb3e9b04, !- Wednesday Schedule:Day Name
  c630dff6-8833-44c4-9bfd-c1adf9463294, !- Thursday Schedule:Day Name
  9304811f-a323-4f46-bbf5-8ed91a1e0ed5, !- Friday Schedule:Day Name
  26efab8f-71d1-49ac-8e6d-80e545446edc, !- Saturday Schedule:Day Name
  cd6e4dc1-4d21-4f61-a705-2eb9fba18fde, !- Holiday Schedule:Day Name
  cd6e4dc1-4d21-4f61-a705-2eb9fba18fde, !- SummerDesignDay Schedule:Day Name
  cd6e4dc1-4d21-4f61-a705-2eb9fba18fde, !- WinterDesignDay Schedule:Day Name
  cd6e4dc1-4d21-4f61-a705-2eb9fba18fde, !- CustomDay1 Schedule:Day Name
  cd6e4dc1-4d21-4f61-a705-2eb9fba18fde; !- CustomDay2 Schedule:Day Name

Schedule:Week:Daily, MechVentAvail_S17_0_33,
  2763e292-c780-4388-9eb1-5602e8280f79, !- Sunday Schedule:Day Name
  04d9b4cc-3361-45ed-a605-d6ad5f25c658, !- Monday Schedule:Day Name
  96573092-6b43-42e0-a5c7-47cef951f330, !- Tuesday Schedule:Day Name
  838c61b4-e72b-4a26-b894-5ca9a22fec98, !- Wednesday Schedule:Day Name
  f44c7d43-eb63-4cbe-8a9a-e6e9b300dd86, !- Thursday Schedule:Day Name
  88dae2dc-b2b6-483f-aad9-57490e7ec9bf, !- Friday Schedule:Day Name
  4ffb8b96-8488-4462-97e4-fcb9d6916c09, !- Saturday Schedule:Day Name
  2763e292-c780-4388-9eb1-5602e8280f79, !- Holiday Schedule:Day Name
  2763e292-c780-4388-9eb1-5602e8280f79, !- SummerDesignDay Schedule:Day Name
  2763e292-c780-4388-9eb1-5602e8280f79, !- WinterDesignDay Schedule:Day Name
  2763e292-c780-4388-9eb1-5602e8280f79, !- CustomDay1 Schedule:Day Name
  2763e292-c780-4388-9eb1-5602e8280f79; !- CustomDay2 Schedule:Day Name

Schedule:Week:Daily, MechVentAvail_S17_0_34,
  3732aef1-e269-4c4b-9e84-9b4ce90f3599, !- Sunday Schedule:Day Name
  131d9379-0c3a-4213-9615-08ed3ee987e3, !- Monday Schedule:Day Name
  64d2ef84-f735-40f5-848f-b84cf636545b, !- Tuesday Schedule:Day Name
  8bffd4ed-cacd-4c23-92e5-9d9dea66ee59, !- Wednesday Schedule:Day Name
  38b78c56-95b2-40a6-8eb6-abe085f8060e, !- Thursday Schedule:Day Name
  41d94b3c-f69d-4b60-9381-8accf866c43d, !- Friday Schedule:Day Name
  31bed374-725e-4fb7-96bb-4f30082a6669, !- Saturday Schedule:Day Name
  3732aef1-e269-4c4b-9e84-9b4ce90f3599, !- Holiday Schedule:Day Name
  3732aef1-e269-4c4b-9e84-9b4ce90f3599, !- SummerDesignDay Schedule:Day Name
  3732aef1-e269-4c4b-9e84-9b4ce90f3599, !- WinterDesignDay Schedule:Day Name
  3732aef1-e269-4c4b-9e84-9b4ce90f3599, !- CustomDay1 Schedule:Day Name
  3732aef1-e269-4c4b-9e84-9b4ce90f3599; !- CustomDay2 Schedule:Day Name

Schedule:Week:Daily, MechVentAvail_S17_0_35,
  eca01a4c-e19c-4b26-a5e4-bcd698a1f312, !- Sunday Schedule:Day Name
  4d17fef4-ccfb-4f9b-86bf-6a31afba34bf, !- Monday Schedule:Day Name
  324a820c-9e79-4287-9929-5af24269ea02, !- Tuesday Schedule:Day Name
  1ecb58a0-4cbf-4c1c-9654-0718d4808108, !- Wednesday Schedule:Day Name
  328e2f82-dc52-4c28-ab51-245193f499f0, !- Thursday Schedule:Day Name
  581f2440-89ba-449f-95ed-24e56b724746, !- Friday Schedule:Day Name
  4505f2e5-c974-4700-b0ed-2fbd1115c669, !- Saturday Schedule:Day Name
  eca01a4c-e19c-4b26-a5e4-bcd698a1f312, !- Holiday Schedule:Day Name
  eca01a4c-e19c-4b26-a5e4-bcd698a1f312, !- SummerDesignDay Schedule:Day Name
  eca01a4c-e19c-4b26-a5e4-bcd698a1f312, !- WinterDesignDay Schedule:Day Name
  eca01a4c-e19c-4b26-a5e4-bcd698a1f312, !- CustomDay1 Schedule:Day Name
  eca01a4c-e19c-4b26-a5e4-bcd698a1f312; !- CustomDay2 Schedule:Day Name

Schedule:Week:Daily, MechVentAvail_S17_0_36,
  f8703f59-7315-4c81-a6d3-daec133cf262, !- Sunday Schedule:Day Name
  1ddc7ad3-d268-423d-b9ef-a5decc2562e4, !- Monday Schedule:Day Name
  7c9d4112-4d7d-46a7-a392-567ee75c1faf, !- Tuesday Schedule:Day Name
  08cca002-0a92-48bb-98a0-a9bfe699148d, !- Wednesday Schedule:Day Name
  ad69dad0-a228-4842-8893-8c3622a09e1a, !- Thursday Schedule:Day Name
  56a7906b-8b57-4ed4-80dd-8e4b8924105c, !- Friday Schedule:Day Name
  a4e0b79d-80da-4a7b-8d59-48567f5602fe, !- Saturday Schedule:Day Name
  f8703f59-7315-4c81-a6d3-daec133cf262, !- Holiday Schedule:Day Name
  f8703f59-7315-4c81-a6d3-daec133cf262, !- SummerDesignDay Schedule:Day Name
  f8703f59-7315-4c81-a6d3-daec133cf262, !- WinterDesignDay Schedule:Day Name
  f8703f59-7315-4c81-a6d3-daec133cf262, !- CustomDay1 Schedule:Day Name
  f8703f59-7315-4c81-a6d3-daec133cf262; !- CustomDay2 Schedule:Day Name

Schedule:Week:Daily, MechVentAvail_S17_0_37,
  4f585860-18b9-4ac7-aa09-0524684b216c, !- Sunday Schedule:Day Name
  35bfe634-abd5-4321-8240-e2e51131fc19, !- Monday Schedule:Day Name
  216fef4e-556d-4d45-9276-d794d4edb9d1, !- Tuesday Schedule:Day Name
  23d8341d-39d1-4cad-8210-b67dd821eae3, !- Wednesday Schedule:Day Name
  21af95f6-3f22-4c2b-8c65-aa3243ec1cda, !- Thursday Schedule:Day Name
  22a1e51b-2093-4564-b5ed-ae6a32fcb6cb, !- Friday Schedule:Day Name
  27ece69b-9f15-4565-aafb-14e8b30c6f24, !- Saturday Schedule:Day Name
  4f585860-18b9-4ac7-aa09-0524684b216c, !- Holiday Schedule:Day Name
  4f585860-18b9-4ac7-aa09-0524684b216c, !- SummerDesignDay Schedule:Day Name
  4f585860-18b9-4ac7-aa09-0524684b216c, !- WinterDesignDay Schedule:Day Name
  4f585860-18b9-4ac7-aa09-0524684b216c, !- CustomDay1 Schedule:Day Name
  4f585860-18b9-4ac7-aa09-0524684b216c; !- CustomDay2 Schedule:Day Name

Schedule:Week:Daily, MechVentAvail_S17_0_38,
  38bb5bee-d901-4922-b601-fa4e0b83000a, !- Sunday Schedule:Day Name
  f10935d8-bf25-46bb-853f-70b318c561c0, !- Monday Schedule:Day Name
  f8703f59-7315-4c81-a6d3-daec133cf262, !- Tuesday Schedule:Day Name
  c55de4f9-5b5b-43f8-b345-433e33f9a284, !- Wednesday Schedule:Day Name
  16e3741b-a500-461d-a6ed-fc0679f2b8ed, !- Thursday Schedule:Day Name
  4eb27dbc-bfc3-4997-bc50-2bbe2ae7be88, !- Friday Schedule:Day Name
  5ac09ab2-beb6-4f57-9377-471444e6df28, !- Saturday Schedule:Day Name
  38bb5bee-d901-4922-b601-fa4e0b83000a, !- Holiday Schedule:Day Name
  38bb5bee-d901-4922-b601-fa4e0b83000a, !- SummerDesignDay Schedule:Day Name
  38bb5bee-d901-4922-b601-fa4e0b83000a, !- WinterDesignDay Schedule:Day Name
  38bb5bee-d901-4922-b601-fa4e0b83000a, !- CustomDay1 Schedule:Day Name
  38bb5bee-d901-4922-b601-fa4e0b83000a; !- CustomDay2 Schedule:Day Name

Schedule:Week:Daily, MechVentAvail_S17_0_39,
  d9334854-d197-4658-af41-34ca6e427bc2, !- Sunday Schedule:Day Name
  e0120a70-5495-43e2-bb04-d85c7344809b, !- Monday Schedule:Day Name
  a1530b9f-aa9a-44a0-9089-bc16a00b669e, !- Tuesday Schedule:Day Name
  b80e21ad-0aa0-476b-a39c-7dbb701e5039, !- Wednesday Schedule:Day Name
  c9460a58-7f65-499f-93ef-bf7f84d4d2b7, !- Thursday Schedule:Day Name
  3c9a2343-97bf-4438-bbac-0b0613b5cb3d, !- Friday Schedule:Day Name
  4f585860-18b9-4ac7-aa09-0524684b216c, !- Saturday Schedule:Day Name
  d9334854-d197-4658-af41-34ca6e427bc2, !- Holiday Schedule:Day Name
  d9334854-d197-4658-af41-34ca6e427bc2, !- SummerDesignDay Schedule:Day Name
  d9334854-d197-4658-af41-34ca6e427bc2, !- WinterDesignDay Schedule:Day Name
  d9334854-d197-4658-af41-34ca6e427bc2, !- CustomDay1 Schedule:Day Name
  d9334854-d197-4658-af41-34ca6e427bc2; !- CustomDay2 Schedule:Day Name

Schedule:Week:Daily, MechVentAvail_S17_0_40,
  973136e5-7eaf-48f7-b915-6c9a37701442, !- Sunday Schedule:Day Name
  ba165f2a-0a90-41e4-92a6-d02a0a46b943, !- Monday Schedule:Day Name
  26ee9eff-1623-47c5-839f-52054b0ed0af, !- Tuesday Schedule:Day Name
  735f1e76-030f-4e2a-a5f5-b0a8f4907394, !- Wednesday Schedule:Day Name
  128f470d-150a-4e7b-ae07-43f4f1eff838, !- Thursday Schedule:Day Name
  791541ee-b5a6-415e-91e9-6991e1c80c7a, !- Friday Schedule:Day Name
  e5c722e7-6da8-4bbe-804a-78448155b7ed, !- Saturday Schedule:Day Name
  973136e5-7eaf-48f7-b915-6c9a37701442, !- Holiday Schedule:Day Name
  973136e5-7eaf-48f7-b915-6c9a37701442, !- SummerDesignDay Schedule:Day Name
  973136e5-7eaf-48f7-b915-6c9a37701442, !- WinterDesignDay Schedule:Day Name
  973136e5-7eaf-48f7-b915-6c9a37701442, !- CustomDay1 Schedule:Day Name
  973136e5-7eaf-48f7-b915-6c9a37701442; !- CustomDay2 Schedule:Day Name

Schedule:Week:Daily, MechVentAvail_S17_0_41,
  6feb05bb-3b47-4e1a-a18e-e1cbfe3bb0fd, !- Sunday Schedule:Day Name
  64400c93-05fa-4272-b678-8e14fcb98c33, !- Monday Schedule:Day Name
  ed0dcf7f-ad70-4942-9c09-dba42210d571, !- Tuesday Schedule:Day Name
  8b65e0a5-b0e8-41a0-8c55-46b98c72f420, !- Wednesday Schedule:Day Name
  747f836d-5fa0-4766-9935-bec713b8a2cf, !- Thursday Schedule:Day Name
  35819b10-d477-4c47-b0b5-ca36da1a74a7, !- Friday Schedule:Day Name
  a60063e1-1796-485a-95ae-76ba7a375841, !- Saturday Schedule:Day Name
  6feb05bb-3b47-4e1a-a18e-e1cbfe3bb0fd, !- Holiday Schedule:Day Name
  6feb05bb-3b47-4e1a-a18e-e1cbfe3bb0fd, !- SummerDesignDay Schedule:Day Name
  6feb05bb-3b47-4e1a-a18e-e1cbfe3bb0fd, !- WinterDesignDay Schedule:Day Name
  6feb05bb-3b47-4e1a-a18e-e1cbfe3bb0fd, !- CustomDay1 Schedule:Day Name
  6feb05bb-3b47-4e1a-a18e-e1cbfe3bb0fd; !- CustomDay2 Schedule:Day Name

Schedule:Week:Daily, MechVentAvail_S17_0_42,
  6365fd77-f3b6-4dce-b616-1bd741a7593f, !- Sunday Schedule:Day Name
  b9fda6bb-e24d-488c-892a-f10f506fc230, !- Monday Schedule:Day Name
  82558eb8-a907-4d96-bfc2-141b1edff7b8, !- Tuesday Schedule:Day Name
  199bd7b1-b331-4ea2-9c2b-c964a8bbb985, !- Wednesday Schedule:Day Name
  f92b5ace-c104-4eec-8cf6-22f32ade0833, !- Thursday Schedule:Day Name
  eaceb619-25f8-4c61-944b-39e37ccd661c, !- Friday Schedule:Day Name
  defd7e23-ccfe-4ff6-ae0f-768495bc4423, !- Saturday Schedule:Day Name
  6365fd77-f3b6-4dce-b616-1bd741a7593f, !- Holiday Schedule:Day Name
  6365fd77-f3b6-4dce-b616-1bd741a7593f, !- SummerDesignDay Schedule:Day Name
  6365fd77-f3b6-4dce-b616-1bd741a7593f, !- WinterDesignDay Schedule:Day Name
  6365fd77-f3b6-4dce-b616-1bd741a7593f, !- CustomDay1 Schedule:Day Name
  6365fd77-f3b6-4dce-b616-1bd741a7593f; !- CustomDay2 Schedule:Day Name

Schedule:Week:Daily, MechVentAvail_S17_0_43,
  51a67dad-ee02-442a-8bdc-920b9719b10e, !- Sunday Schedule:Day Name
  4b54abea-f727-42e1-922a-d229dd492388, !- Monday Schedule:Day Name
  5055d847-8683-4ed0-87d4-19b96ef13de3, !- Tuesday Schedule:Day Name
  04c42399-f9f3-47a2-a6ce-dd65ae4d9d1c, !- Wednesday Schedule:Day Name
  a42c647a-e62e-409e-87df-b8050869f66e, !- Thursday Schedule:Day Name
  c5ca1a3e-0cff-478c-a2a6-9b24cfcff8fa, !- Friday Schedule:Day Name
  0ca41cd6-8cb8-45e8-9b24-2fefdcedf8ac, !- Saturday Schedule:Day Name
  51a67dad-ee02-442a-8bdc-920b9719b10e, !- Holiday Schedule:Day Name
  51a67dad-ee02-442a-8bdc-920b9719b10e, !- SummerDesignDay Schedule:Day Name
  51a67dad-ee02-442a-8bdc-920b9719b10e, !- WinterDesignDay Schedule:Day Name
  51a67dad-ee02-442a-8bdc-920b9719b10e, !- CustomDay1 Schedule:Day Name
  51a67dad-ee02-442a-8bdc-920b9719b10e; !- CustomDay2 Schedule:Day Name

Schedule:Week:Daily, MechVentAvail_S17_0_44,
  12dceb46-d6db-4599-9b63-a6f514dc4f92, !- Sunday Schedule:Day Name
  878d5cbf-7b98-4252-a014-d4995158d2dc, !- Monday Schedule:Day Name
  7e2dd2c3-aa8a-4bdb-822a-83a93267469c, !- Tuesday Schedule:Day Name
  005e9998-0b35-42f6-a249-7a2c13225b52, !- Wednesday Schedule:Day Name
  00145504-8680-4e78-97fe-220fc942b377, !- Thursday Schedule:Day Name
  bb9c41be-61c1-4ebd-bf29-762ad8a061f1, !- Friday Schedule:Day Name
  51d52436-b71f-4e46-99ec-c6f1f2ebe9eb, !- Saturday Schedule:Day Name
  12dceb46-d6db-4599-9b63-a6f514dc4f92, !- Holiday Schedule:Day Name
  12dceb46-d6db-4599-9b63-a6f514dc4f92, !- SummerDesignDay Schedule:Day Name
  12dceb46-d6db-4599-9b63-a6f514dc4f92, !- WinterDesignDay Schedule:Day Name
  12dceb46-d6db-4599-9b63-a6f514dc4f92, !- CustomDay1 Schedule:Day Name
  12dceb46-d6db-4599-9b63-a6f514dc4f92; !- CustomDay2 Schedule:Day Name

Schedule:Week:Daily, MechVentAvail_S17_0_45,
  57295fca-58e6-4d14-8e2b-0a7e50582ef8, !- Sunday Schedule:Day Name
  e51780fd-68b9-485c-b53b-41d4aa329173, !- Monday Schedule:Day Name
  0416ab25-20df-4614-b3f5-29b9eaf4fa9c, !- Tuesday Schedule:Day Name
  48f227b6-837a-4e3a-a835-452beb52d8a7, !- Wednesday Schedule:Day Name
  a1530b9f-aa9a-44a0-9089-bc16a00b669e, !- Thursday Schedule:Day Name
  8398727b-d2d4-4ee7-96ab-770dfcc77527, !- Friday Schedule:Day Name
  57295fca-58e6-4d14-8e2b-0a7e50582ef8, !- Saturday Schedule:Day Name
  57295fca-58e6-4d14-8e2b-0a7e50582ef8, !- Holiday Schedule:Day Name
  57295fca-58e6-4d14-8e2b-0a7e50582ef8, !- SummerDesignDay Schedule:Day Name
  57295fca-58e6-4d14-8e2b-0a7e50582ef8, !- WinterDesignDay Schedule:Day Name
  57295fca-58e6-4d14-8e2b-0a7e50582ef8, !- CustomDay1 Schedule:Day Name
  57295fca-58e6-4d14-8e2b-0a7e50582ef8; !- CustomDay2 Schedule:Day Name

Schedule:Week:Daily, MechVentAvail_S17_0_46,
  47a75b71-2e69-4fe2-a5c7-3ae50deb6071, !- Sunday Schedule:Day Name
  b9fda6bb-e24d-488c-892a-f10f506fc230, !- Monday Schedule:Day Name
  2fa0508f-e059-4897-9b0f-80327699850d, !- Tuesday Schedule:Day Name
  fd7cf928-6442-4257-bec3-316041faf432, !- Wednesday Schedule:Day Name
  75772aa4-2169-4592-a0ce-d46cc9314986, !- Thursday Schedule:Day Name
  8cb39c06-89f5-4c77-a42c-1a61433c71ff, !- Friday Schedule:Day Name
  663d472e-7db6-4866-81e9-152baca2bb5c, !- Saturday Schedule:Day Name
  47a75b71-2e69-4fe2-a5c7-3ae50deb6071, !- Holiday Schedule:Day Name
  47a75b71-2e69-4fe2-a5c7-3ae50deb6071, !- SummerDesignDay Schedule:Day Name
  47a75b71-2e69-4fe2-a5c7-3ae50deb6071, !- WinterDesignDay Schedule:Day Name
  47a75b71-2e69-4fe2-a5c7-3ae50deb6071, !- CustomDay1 Schedule:Day Name
  47a75b71-2e69-4fe2-a5c7-3ae50deb6071; !- CustomDay2 Schedule:Day Name

Schedule:Week:Daily, MechVentAvail_S17_0_47,
  38dbcb10-f1b6-49db-bbaf-37d28275cd1c, !- Sunday Schedule:Day Name
  fdf7142b-0f27-49ab-9552-cca525c0e781, !- Monday Schedule:Day Name
  630cffc9-27a1-4e7d-83ad-e732c21bbedd, !- Tuesday Schedule:Day Name
  f487e253-3329-4cee-a2fa-59b6e56d3a6b, !- Wednesday Schedule:Day Name
  b786cea4-8290-486e-a954-83d6796b3456, !- Thursday Schedule:Day Name
  c1f9b941-a352-4496-bdbd-2463ed4b9ab1, !- Friday Schedule:Day Name
  14a5ef99-5643-4d80-b06d-e77d933fda5a, !- Saturday Schedule:Day Name
  38dbcb10-f1b6-49db-bbaf-37d28275cd1c, !- Holiday Schedule:Day Name
  38dbcb10-f1b6-49db-bbaf-37d28275cd1c, !- SummerDesignDay Schedule:Day Name
  38dbcb10-f1b6-49db-bbaf-37d28275cd1c, !- WinterDesignDay Schedule:Day Name
  38dbcb10-f1b6-49db-bbaf-37d28275cd1c, !- CustomDay1 Schedule:Day Name
  38dbcb10-f1b6-49db-bbaf-37d28275cd1c; !- CustomDay2 Schedule:Day Name

Schedule:Week:Daily, MechVentAvail_S17_0_48,
  50720eca-4dd0-476f-8dff-f0b3ebfa9f6c, !- Sunday Schedule:Day Name
  da0e3314-0b5b-406d-a1a1-5f33ee1c906a, !- Monday Schedule:Day Name
  89d1df51-448f-4462-a08b-a69803267a3f, !- Tuesday Schedule:Day Name
  9537ff6e-2588-4ef4-bda1-aa409aab7af1, !- Wednesday Schedule:Day Name
  f997d1c3-8c63-48e1-9552-ac3661c0fc7b, !- Thursday Schedule:Day Name
  39d59c97-67c6-4e2d-89ef-b1364d21566c, !- Friday Schedule:Day Name
  667c9cc7-522e-4738-a714-b7071c24d97f, !- Saturday Schedule:Day Name
  50720eca-4dd0-476f-8dff-f0b3ebfa9f6c, !- Holiday Schedule:Day Name
  50720eca-4dd0-476f-8dff-f0b3ebfa9f6c, !- SummerDesignDay Schedule:Day Name
  50720eca-4dd0-476f-8dff-f0b3ebfa9f6c, !- WinterDesignDay Schedule:Day Name
  50720eca-4dd0-476f-8dff-f0b3ebfa9f6c, !- CustomDay1 Schedule:Day Name
  50720eca-4dd0-476f-8dff-f0b3ebfa9f6c; !- CustomDay2 Schedule:Day Name

Schedule:Week:Daily, MechVentAvail_S17_0_49,
  3d4f4472-d5aa-4ad2-8443-198db121f422, !- Sunday Schedule:Day Name
  180a5d12-98d8-4e0e-8838-d87546300336, !- Monday Schedule:Day Name
  3dd4e555-544e-4cd9-a547-b05d940d0038, !- Tuesday Schedule:Day Name
  563d61ce-fd75-496c-a24e-29445ff1effa, !- Wednesday Schedule:Day Name
  90f94ff6-ae47-4445-b2b6-431759312e56, !- Thursday Schedule:Day Name
  b1dc7f95-afd8-4535-baa3-e8295b537215, !- Friday Schedule:Day Name
  c309f14e-1ec3-436f-900e-69d25bdd1ce4, !- Saturday Schedule:Day Name
  3d4f4472-d5aa-4ad2-8443-198db121f422, !- Holiday Schedule:Day Name
  3d4f4472-d5aa-4ad2-8443-198db121f422, !- SummerDesignDay Schedule:Day Name
  3d4f4472-d5aa-4ad2-8443-198db121f422, !- WinterDesignDay Schedule:Day Name
  3d4f4472-d5aa-4ad2-8443-198db121f422, !- CustomDay1 Schedule:Day Name
  3d4f4472-d5aa-4ad2-8443-198db121f422; !- CustomDay2 Schedule:Day Name

Schedule:Week:Daily, MechVentAvail_S17_0_50,
  f97f1995-aca2-4397-8431-f280c087ddb5, !- Sunday Schedule:Day Name
  26ee9eff-1623-47c5-839f-52054b0ed0af, !- Monday Schedule:Day Name
  1cdd53bd-e8d3-461e-bf4f-7a00374b1e25, !- Tuesday Schedule:Day Name
  24c2b1cc-3ca4-4dbe-b3a6-4996508fb32a, !- Wednesday Schedule:Day Name
  f8345422-929e-4881-9798-eaf8d1b45efc, !- Thursday Schedule:Day Name
  e1745905-e496-4db8-a954-e6b1f3073ce5, !- Friday Schedule:Day Name
  5bc440fc-95c4-4d35-92ac-8eced93f7308, !- Saturday Schedule:Day Name
  f97f1995-aca2-4397-8431-f280c087ddb5, !- Holiday Schedule:Day Name
  f97f1995-aca2-4397-8431-f280c087ddb5, !- SummerDesignDay Schedule:Day Name
  f97f1995-aca2-4397-8431-f280c087ddb5, !- WinterDesignDay Schedule:Day Name
  f97f1995-aca2-4397-8431-f280c087ddb5, !- CustomDay1 Schedule:Day Name
  f97f1995-aca2-4397-8431-f280c087ddb5; !- CustomDay2 Schedule:Day Name

Schedule:Week:Daily, MechVentAvail_S17_0_51,
  5feac57b-c063-4623-b02a-96e1fc21173a, !- Sunday Schedule:Day Name
  cde5ef60-73dc-492f-9a8e-d230d940041c, !- Monday Schedule:Day Name
  dfd9d9d8-d60e-4dc5-b3ef-316737d7fdbc, !- Tuesday Schedule:Day Name
  6f84943a-9580-48f6-abb5-16b5c14ebb8c, !- Wednesday Schedule:Day Name
  96cc1cfd-33e8-48a0-ac5d-2f14c5bfd822, !- Thursday Schedule:Day Name
  a72a09e1-d220-4f93-bfda-8aa8ce1d154c, !- Friday Schedule:Day Name
  b4717505-3080-4605-921e-3500b5537a68, !- Saturday Schedule:Day Name
  5feac57b-c063-4623-b02a-96e1fc21173a, !- Holiday Schedule:Day Name
  5feac57b-c063-4623-b02a-96e1fc21173a, !- SummerDesignDay Schedule:Day Name
  5feac57b-c063-4623-b02a-96e1fc21173a, !- WinterDesignDay Schedule:Day Name
  5feac57b-c063-4623-b02a-96e1fc21173a, !- CustomDay1 Schedule:Day Name
  5feac57b-c063-4623-b02a-96e1fc21173a; !- CustomDay2 Schedule:Day Name

Schedule:Week:Daily, MechVentAvail_S17_0_52,
  e05a56ec-6aa4-4702-90d9-f841ebf66855, !- Sunday Schedule:Day Name
  e05a56ec-6aa4-4702-90d9-f841ebf66855, !- Monday Schedule:Day Name
  e05a56ec-6aa4-4702-90d9-f841ebf66855, !- Tuesday Schedule:Day Name
  e05a56ec-6aa4-4702-90d9-f841ebf66855, !- Wednesday Schedule:Day Name
  e05a56ec-6aa4-4702-90d9-f841ebf66855, !- Thursday Schedule:Day Name
  e05a56ec-6aa4-4702-90d9-f841ebf66855, !- Friday Schedule:Day Name
  e05a56ec-6aa4-4702-90d9-f841ebf66855, !- Saturday Schedule:Day Name
  e05a56ec-6aa4-4702-90d9-f841ebf66855, !- Holiday Schedule:Day Name
  e05a56ec-6aa4-4702-90d9-f841ebf66855, !- SummerDesignDay Schedule:Day Name
  e05a56ec-6aa4-4702-90d9-f841ebf66855, !- WinterDesignDay Schedule:Day Name
  e05a56ec-6aa4-4702-90d9-f841ebf66855, !- CustomDay1 Schedule:Day Name
  e05a56ec-6aa4-4702-90d9-f841ebf66855; !- CustomDay2 Schedule:Day Name


Schedule:Year,NatVentAvail_S17_0,
Fraction,
NatVentAvail_S17_0_0,1,1,1,7, 
NatVentAvail_S17_0_1,1,8,1,14, 
NatVentAvail_S17_0_2,1,15,1,21, 
NatVentAvail_S17_0_3,1,22,1,28, 
NatVentAvail_S17_0_4,1,29,2,4, 
NatVentAvail_S17_0_5,2,5,2,11, 
NatVentAvail_S17_0_6,2,12,2,18, 
NatVentAvail_S17_0_7,2,19,2,25, 
NatVentAvail_S17_0_8,2,26,3,4, 
NatVentAvail_S17_0_9,3,5,3,11, 
NatVentAvail_S17_0_10,3,12,3,18, 
NatVentAvail_S17_0_11,3,19,3,25, 
NatVentAvail_S17_0_12,3,26,4,1, 
NatVentAvail_S17_0_13,4,2,4,8, 
NatVentAvail_S17_0_14,4,9,4,15, 
NatVentAvail_S17_0_15,4,16,4,22, 
NatVentAvail_S17_0_16,4,23,4,29, 
NatVentAvail_S17_0_17,4,30,5,6, 
NatVentAvail_S17_0_18,5,7,5,13, 
NatVentAvail_S17_0_19,5,14,5,20, 
NatVentAvail_S17_0_20,5,21,5,27, 
NatVentAvail_S17_0_21,5,28,6,3, 
NatVentAvail_S17_0_22,6,4,6,10, 
NatVentAvail_S17_0_23,6,11,6,17, 
NatVentAvail_S17_0_24,6,18,6,24, 
NatVentAvail_S17_0_25,6,25,7,1, 
NatVentAvail_S17_0_26,7,2,7,8, 
NatVentAvail_S17_0_27,7,9,7,15, 
NatVentAvail_S17_0_28,7,16,7,22, 
NatVentAvail_S17_0_29,7,23,7,29, 
NatVentAvail_S17_0_30,7,30,8,5, 
NatVentAvail_S17_0_31,8,6,8,12, 
NatVentAvail_S17_0_32,8,13,8,19, 
NatVentAvail_S17_0_33,8,20,8,26, 
NatVentAvail_S17_0_34,8,27,9,2, 
NatVentAvail_S17_0_35,9,3,9,9, 
NatVentAvail_S17_0_36,9,10,9,16, 
NatVentAvail_S17_0_37,9,17,9,23, 
NatVentAvail_S17_0_38,9,24,9,30, 
NatVentAvail_S17_0_39,10,1,10,7, 
NatVentAvail_S17_0_40,10,8,10,14, 
NatVentAvail_S17_0_41,10,15,10,21, 
NatVentAvail_S17_0_42,10,22,10,28, 
NatVentAvail_S17_0_43,10,29,11,4, 
NatVentAvail_S17_0_44,11,5,11,11, 
NatVentAvail_S17_0_45,11,12,11,18, 
NatVentAvail_S17_0_46,11,19,11,25, 
NatVentAvail_S17_0_47,11,26,12,2, 
NatVentAvail_S17_0_48,12,3,12,9, 
NatVentAvail_S17_0_49,12,10,12,16, 
NatVentAvail_S17_0_50,12,17,12,23, 
NatVentAvail_S17_0_51,12,24,12,30, 
NatVentAvail_S17_0_52,12,31,12,31;

Schedule:Week:Daily, NatVentAvail_S17_0_0,
  eff3c904-2ccf-4a9a-ab07-97f850aba31b, !- Sunday Schedule:Day Name
  bbc0bc8d-893e-4d03-8491-546f19653f86, !- Monday Schedule:Day Name
  11436ce9-89de-41bd-b25a-be22412bf053, !- Tuesday Schedule:Day Name
  5a78c427-83be-4c59-b8a9-d80ae3f9b6e4, !- Wednesday Schedule:Day Name
  8d19ceb3-6b38-4aa0-8136-29ae1fab8b94, !- Thursday Schedule:Day Name
  602188f5-4374-4056-af5e-922559f9e307, !- Friday Schedule:Day Name
  70f10cb6-9a16-42ed-835d-2fab6c8acb6f, !- Saturday Schedule:Day Name
  eff3c904-2ccf-4a9a-ab07-97f850aba31b, !- Holiday Schedule:Day Name
  eff3c904-2ccf-4a9a-ab07-97f850aba31b, !- SummerDesignDay Schedule:Day Name
  eff3c904-2ccf-4a9a-ab07-97f850aba31b, !- WinterDesignDay Schedule:Day Name
  eff3c904-2ccf-4a9a-ab07-97f850aba31b, !- CustomDay1 Schedule:Day Name
  eff3c904-2ccf-4a9a-ab07-97f850aba31b; !- CustomDay2 Schedule:Day Name

Schedule:Week:Daily, NatVentAvail_S17_0_1,
  87064229-2f4b-45b9-bb6c-0c282fc1518e, !- Sunday Schedule:Day Name
  fc16d2a8-5d42-4464-b557-d0ee5435ec5e, !- Monday Schedule:Day Name
  48bd3c55-f78e-4c6d-9365-30fafaccd7fb, !- Tuesday Schedule:Day Name
  e560dd57-945f-4b36-bab8-d4f70c74ef86, !- Wednesday Schedule:Day Name
  33522abf-6d5b-4f70-a4d5-2dcc7554ef71, !- Thursday Schedule:Day Name
  a867c2ed-4861-4259-b14f-ab2409dbcf09, !- Friday Schedule:Day Name
  7a80d66d-eb5f-4a4c-bd0c-c0a2cd2b9419, !- Saturday Schedule:Day Name
  87064229-2f4b-45b9-bb6c-0c282fc1518e, !- Holiday Schedule:Day Name
  87064229-2f4b-45b9-bb6c-0c282fc1518e, !- SummerDesignDay Schedule:Day Name
  87064229-2f4b-45b9-bb6c-0c282fc1518e, !- WinterDesignDay Schedule:Day Name
  87064229-2f4b-45b9-bb6c-0c282fc1518e, !- CustomDay1 Schedule:Day Name
  87064229-2f4b-45b9-bb6c-0c282fc1518e; !- CustomDay2 Schedule:Day Name

Schedule:Week:Daily, NatVentAvail_S17_0_2,
  ce266d21-c274-440a-a31b-7bbc792a86b9, !- Sunday Schedule:Day Name
  dd5c88b8-9880-404c-b964-3714a101f4cc, !- Monday Schedule:Day Name
  33522abf-6d5b-4f70-a4d5-2dcc7554ef71, !- Tuesday Schedule:Day Name
  15d39ef0-230d-4d8a-9b53-acc68ca7dc45, !- Wednesday Schedule:Day Name
  bbc0bc8d-893e-4d03-8491-546f19653f86, !- Thursday Schedule:Day Name
  dbee7365-7460-4704-8b69-d53d2ae39e4d, !- Friday Schedule:Day Name
  e1dc3508-2bd0-4045-b292-35436664c7c2, !- Saturday Schedule:Day Name
  ce266d21-c274-440a-a31b-7bbc792a86b9, !- Holiday Schedule:Day Name
  ce266d21-c274-440a-a31b-7bbc792a86b9, !- SummerDesignDay Schedule:Day Name
  ce266d21-c274-440a-a31b-7bbc792a86b9, !- WinterDesignDay Schedule:Day Name
  ce266d21-c274-440a-a31b-7bbc792a86b9, !- CustomDay1 Schedule:Day Name
  ce266d21-c274-440a-a31b-7bbc792a86b9; !- CustomDay2 Schedule:Day Name

Schedule:Week:Daily, NatVentAvail_S17_0_3,
  5712dd59-3b3d-4bbc-a01f-ceb5e0a7f8e6, !- Sunday Schedule:Day Name
  a30d819a-71b9-42c9-8859-ec36a8cf5ef9, !- Monday Schedule:Day Name
  ec007f7b-19eb-4b0c-a987-f5b5e3d6fb29, !- Tuesday Schedule:Day Name
  86f91a63-8e8a-4066-b134-4b72acf1abb4, !- Wednesday Schedule:Day Name
  dd9bd541-1c2e-4fc6-a9e0-d776f7edcb14, !- Thursday Schedule:Day Name
  eff3c904-2ccf-4a9a-ab07-97f850aba31b, !- Friday Schedule:Day Name
  4ef6fee2-8c3a-465b-95cd-d604b66b6496, !- Saturday Schedule:Day Name
  5712dd59-3b3d-4bbc-a01f-ceb5e0a7f8e6, !- Holiday Schedule:Day Name
  5712dd59-3b3d-4bbc-a01f-ceb5e0a7f8e6, !- SummerDesignDay Schedule:Day Name
  5712dd59-3b3d-4bbc-a01f-ceb5e0a7f8e6, !- WinterDesignDay Schedule:Day Name
  5712dd59-3b3d-4bbc-a01f-ceb5e0a7f8e6, !- CustomDay1 Schedule:Day Name
  5712dd59-3b3d-4bbc-a01f-ceb5e0a7f8e6; !- CustomDay2 Schedule:Day Name

Schedule:Week:Daily, NatVentAvail_S17_0_4,
  6e5feabd-65f9-472b-be8f-971c24bb988c, !- Sunday Schedule:Day Name
  3e14a973-859c-4137-bad9-21c250eb57df, !- Monday Schedule:Day Name
  5ecce77c-f299-48ab-b7e8-21d8f1964ba3, !- Tuesday Schedule:Day Name
  99a6281f-8115-46b8-a7f3-0c64bbd6a882, !- Wednesday Schedule:Day Name
  1b2f58e8-5bac-46a7-a640-b02f15376dfd, !- Thursday Schedule:Day Name
  93a6ec0c-b8ef-460b-8b73-0e3f113541b8, !- Friday Schedule:Day Name
  3e14a973-859c-4137-bad9-21c250eb57df, !- Saturday Schedule:Day Name
  6e5feabd-65f9-472b-be8f-971c24bb988c, !- Holiday Schedule:Day Name
  6e5feabd-65f9-472b-be8f-971c24bb988c, !- SummerDesignDay Schedule:Day Name
  6e5feabd-65f9-472b-be8f-971c24bb988c, !- WinterDesignDay Schedule:Day Name
  6e5feabd-65f9-472b-be8f-971c24bb988c, !- CustomDay1 Schedule:Day Name
  6e5feabd-65f9-472b-be8f-971c24bb988c; !- CustomDay2 Schedule:Day Name

Schedule:Week:Daily, NatVentAvail_S17_0_5,
  7dcde0b7-c253-41fd-a3fa-36e06be56d9f, !- Sunday Schedule:Day Name
  684e7cbb-a94f-4970-a340-6cadfa7648fc, !- Monday Schedule:Day Name
  f211f3d9-cb60-4278-81b4-ab14e7acde4c, !- Tuesday Schedule:Day Name
  e34143cd-9572-4331-8de1-e26b5b88f337, !- Wednesday Schedule:Day Name
  b9dc7084-f2e2-448f-9d1d-b03f15d1f119, !- Thursday Schedule:Day Name
  8668a877-1a9a-4b5f-a7ad-0ab9ceddfc96, !- Friday Schedule:Day Name
  fb54164d-c2cb-4bb6-8a12-42e5b763e555, !- Saturday Schedule:Day Name
  7dcde0b7-c253-41fd-a3fa-36e06be56d9f, !- Holiday Schedule:Day Name
  7dcde0b7-c253-41fd-a3fa-36e06be56d9f, !- SummerDesignDay Schedule:Day Name
  7dcde0b7-c253-41fd-a3fa-36e06be56d9f, !- WinterDesignDay Schedule:Day Name
  7dcde0b7-c253-41fd-a3fa-36e06be56d9f, !- CustomDay1 Schedule:Day Name
  7dcde0b7-c253-41fd-a3fa-36e06be56d9f; !- CustomDay2 Schedule:Day Name

Schedule:Week:Daily, NatVentAvail_S17_0_6,
  810bbfe5-90bb-49d8-baed-b592d23cee27, !- Sunday Schedule:Day Name
  64d2ef84-f735-40f5-848f-b84cf636545b, !- Monday Schedule:Day Name
  8ce601c7-c132-4d5c-9c54-fc20d2eb26b5, !- Tuesday Schedule:Day Name
  b4678f2a-9bbd-46f3-8fb5-149d5f850825, !- Wednesday Schedule:Day Name
  4390b738-8c3f-476e-b3b4-6383b51404f7, !- Thursday Schedule:Day Name
  7ed7d1be-72b1-4d38-8ee5-39665d1264c4, !- Friday Schedule:Day Name
  f31d89e2-f4da-48a2-8c16-15f457d17bba, !- Saturday Schedule:Day Name
  810bbfe5-90bb-49d8-baed-b592d23cee27, !- Holiday Schedule:Day Name
  810bbfe5-90bb-49d8-baed-b592d23cee27, !- SummerDesignDay Schedule:Day Name
  810bbfe5-90bb-49d8-baed-b592d23cee27, !- WinterDesignDay Schedule:Day Name
  810bbfe5-90bb-49d8-baed-b592d23cee27, !- CustomDay1 Schedule:Day Name
  810bbfe5-90bb-49d8-baed-b592d23cee27; !- CustomDay2 Schedule:Day Name

Schedule:Week:Daily, NatVentAvail_S17_0_7,
  1afe13ff-6d5f-4c42-b060-bd548c5a48c2, !- Sunday Schedule:Day Name
  8f547f5f-4711-410e-9fba-6f871bfbefaa, !- Monday Schedule:Day Name
  d0d58bff-54c1-4c8d-af74-7ff80ac5c5b0, !- Tuesday Schedule:Day Name
  f8c351d4-3aab-4c7f-9b3e-c895bd5aa189, !- Wednesday Schedule:Day Name
  63fde2e6-b757-45b0-998c-53f0bb6113cc, !- Thursday Schedule:Day Name
  b99086fe-aeea-4c3d-8c8c-f8b8c1328ad7, !- Friday Schedule:Day Name
  a95745bf-a8a5-470e-a37e-9ee054d5971e, !- Saturday Schedule:Day Name
  1afe13ff-6d5f-4c42-b060-bd548c5a48c2, !- Holiday Schedule:Day Name
  1afe13ff-6d5f-4c42-b060-bd548c5a48c2, !- SummerDesignDay Schedule:Day Name
  1afe13ff-6d5f-4c42-b060-bd548c5a48c2, !- WinterDesignDay Schedule:Day Name
  1afe13ff-6d5f-4c42-b060-bd548c5a48c2, !- CustomDay1 Schedule:Day Name
  1afe13ff-6d5f-4c42-b060-bd548c5a48c2; !- CustomDay2 Schedule:Day Name

Schedule:Week:Daily, NatVentAvail_S17_0_8,
  b8d253a5-0028-4b82-8eaf-c7efa23c45ec, !- Sunday Schedule:Day Name
  dc96ed80-c292-40f6-a6d6-95479a0b1cef, !- Monday Schedule:Day Name
  5a21a34f-6dab-4015-b274-97236da7a5c1, !- Tuesday Schedule:Day Name
  168f10a7-07d4-454f-8298-91428fdce683, !- Wednesday Schedule:Day Name
  dcb67924-ac51-44de-b64d-e2b88428b58b, !- Thursday Schedule:Day Name
  51fff589-1571-456f-b042-3a0048941ddc, !- Friday Schedule:Day Name
  aafd9588-8a73-4686-a0b1-43f667d52a97, !- Saturday Schedule:Day Name
  b8d253a5-0028-4b82-8eaf-c7efa23c45ec, !- Holiday Schedule:Day Name
  b8d253a5-0028-4b82-8eaf-c7efa23c45ec, !- SummerDesignDay Schedule:Day Name
  b8d253a5-0028-4b82-8eaf-c7efa23c45ec, !- WinterDesignDay Schedule:Day Name
  b8d253a5-0028-4b82-8eaf-c7efa23c45ec, !- CustomDay1 Schedule:Day Name
  b8d253a5-0028-4b82-8eaf-c7efa23c45ec; !- CustomDay2 Schedule:Day Name

Schedule:Week:Daily, NatVentAvail_S17_0_9,
  4ee866d5-fcd0-443c-b451-1fdf9b0ed513, !- Sunday Schedule:Day Name
  538fc2d7-703e-422e-b435-23af6d0e72ca, !- Monday Schedule:Day Name
  aafd9588-8a73-4686-a0b1-43f667d52a97, !- Tuesday Schedule:Day Name
  d0bb4643-1f26-4cc4-898d-0cfb3050a2f4, !- Wednesday Schedule:Day Name
  2b99ac63-c771-445f-9039-40a5ccc19763, !- Thursday Schedule:Day Name
  faa53680-d87e-41ab-82e8-6b384e457c05, !- Friday Schedule:Day Name
  fd810649-ffd3-4bb2-9420-d670a92339b5, !- Saturday Schedule:Day Name
  4ee866d5-fcd0-443c-b451-1fdf9b0ed513, !- Holiday Schedule:Day Name
  4ee866d5-fcd0-443c-b451-1fdf9b0ed513, !- SummerDesignDay Schedule:Day Name
  4ee866d5-fcd0-443c-b451-1fdf9b0ed513, !- WinterDesignDay Schedule:Day Name
  4ee866d5-fcd0-443c-b451-1fdf9b0ed513, !- CustomDay1 Schedule:Day Name
  4ee866d5-fcd0-443c-b451-1fdf9b0ed513; !- CustomDay2 Schedule:Day Name

Schedule:Week:Daily, NatVentAvail_S17_0_10,
  f9936bf6-b994-414e-b5a0-57dca7101092, !- Sunday Schedule:Day Name
  aafd9588-8a73-4686-a0b1-43f667d52a97, !- Monday Schedule:Day Name
  b23dc280-f342-4c3a-8335-238ef8f51ae3, !- Tuesday Schedule:Day Name
  e6064396-12d0-48d8-9d6f-aaaf513d9547, !- Wednesday Schedule:Day Name
  986743ba-35e3-4319-b3ba-ec28efb7a6df, !- Thursday Schedule:Day Name
  4922707c-0b6f-493c-be7a-0c672398777d, !- Friday Schedule:Day Name
  79c03aa2-45e9-4bf4-9345-75f9b6aa39b0, !- Saturday Schedule:Day Name
  f9936bf6-b994-414e-b5a0-57dca7101092, !- Holiday Schedule:Day Name
  f9936bf6-b994-414e-b5a0-57dca7101092, !- SummerDesignDay Schedule:Day Name
  f9936bf6-b994-414e-b5a0-57dca7101092, !- WinterDesignDay Schedule:Day Name
  f9936bf6-b994-414e-b5a0-57dca7101092, !- CustomDay1 Schedule:Day Name
  f9936bf6-b994-414e-b5a0-57dca7101092; !- CustomDay2 Schedule:Day Name

Schedule:Week:Daily, NatVentAvail_S17_0_11,
  aafd9588-8a73-4686-a0b1-43f667d52a97, !- Sunday Schedule:Day Name
  2ec0fcee-53f8-458d-a4d4-63899c23682c, !- Monday Schedule:Day Name
  d02a6661-e811-4844-a2f4-26ecfe019d58, !- Tuesday Schedule:Day Name
  d8ecee43-e877-4a8e-b428-51ebe2120327, !- Wednesday Schedule:Day Name
  813e5b07-e885-4116-9611-6acde809bce6, !- Thursday Schedule:Day Name
  d3bc6b9c-1245-45c3-953b-f6a5af411d14, !- Friday Schedule:Day Name
  1bdd8060-4733-46d9-8452-314bf5f9c71d, !- Saturday Schedule:Day Name
  aafd9588-8a73-4686-a0b1-43f667d52a97, !- Holiday Schedule:Day Name
  aafd9588-8a73-4686-a0b1-43f667d52a97, !- SummerDesignDay Schedule:Day Name
  aafd9588-8a73-4686-a0b1-43f667d52a97, !- WinterDesignDay Schedule:Day Name
  aafd9588-8a73-4686-a0b1-43f667d52a97, !- CustomDay1 Schedule:Day Name
  aafd9588-8a73-4686-a0b1-43f667d52a97; !- CustomDay2 Schedule:Day Name

Schedule:Week:Daily, NatVentAvail_S17_0_12,
  bdca5c7c-1441-4522-b2ca-59c636e73e27, !- Sunday Schedule:Day Name
  254b9f4d-ed13-47b2-908d-b6c23f7db977, !- Monday Schedule:Day Name
  d88e3914-bf30-48e6-be87-14a9bdd116fb, !- Tuesday Schedule:Day Name
  78807894-8bd7-4ff2-8383-adab2f45b8da, !- Wednesday Schedule:Day Name
  8a75de80-ef64-44d5-ab1f-ebb9a5a7da51, !- Thursday Schedule:Day Name
  1ad8e6f2-fee0-482a-8231-a3e257c11f46, !- Friday Schedule:Day Name
  fe31c884-96b6-411d-9f98-a812bf01f45b, !- Saturday Schedule:Day Name
  bdca5c7c-1441-4522-b2ca-59c636e73e27, !- Holiday Schedule:Day Name
  bdca5c7c-1441-4522-b2ca-59c636e73e27, !- SummerDesignDay Schedule:Day Name
  bdca5c7c-1441-4522-b2ca-59c636e73e27, !- WinterDesignDay Schedule:Day Name
  bdca5c7c-1441-4522-b2ca-59c636e73e27, !- CustomDay1 Schedule:Day Name
  bdca5c7c-1441-4522-b2ca-59c636e73e27; !- CustomDay2 Schedule:Day Name

Schedule:Week:Daily, NatVentAvail_S17_0_13,
  652182ee-645b-4673-ac57-bb65b184bac7, !- Sunday Schedule:Day Name
  fd3a79a1-b1a9-4217-9083-e815b2263849, !- Monday Schedule:Day Name
  d938a182-c61a-44bb-91a2-cb61c0d5bc78, !- Tuesday Schedule:Day Name
  34516d57-8a7b-45e6-ad4f-2c0956e13d92, !- Wednesday Schedule:Day Name
  0361de27-e564-4996-af33-a7e4ef186911, !- Thursday Schedule:Day Name
  10ad1b31-d93d-4180-a6b3-501d90cb9226, !- Friday Schedule:Day Name
  7c4b5760-aab5-4251-9d37-f546dac7eb31, !- Saturday Schedule:Day Name
  652182ee-645b-4673-ac57-bb65b184bac7, !- Holiday Schedule:Day Name
  652182ee-645b-4673-ac57-bb65b184bac7, !- SummerDesignDay Schedule:Day Name
  652182ee-645b-4673-ac57-bb65b184bac7, !- WinterDesignDay Schedule:Day Name
  652182ee-645b-4673-ac57-bb65b184bac7, !- CustomDay1 Schedule:Day Name
  652182ee-645b-4673-ac57-bb65b184bac7; !- CustomDay2 Schedule:Day Name

Schedule:Week:Daily, NatVentAvail_S17_0_14,
  1fafa463-e820-45ac-b0f7-045e8088be78, !- Sunday Schedule:Day Name
  496354b5-ef6f-40ad-b7d9-382e7a41eb27, !- Monday Schedule:Day Name
  a2a9ddc8-e7a5-4343-8520-aecb1cfc32ee, !- Tuesday Schedule:Day Name
  6ec2f6d5-168a-451a-89a6-4a5bec7d88c9, !- Wednesday Schedule:Day Name
  e182080c-4803-4a15-9909-01462680f901, !- Thursday Schedule:Day Name
  10572860-2e39-4523-9189-20032048c0e2, !- Friday Schedule:Day Name
  22583caf-374e-4dbb-8131-83e720d0cd2f, !- Saturday Schedule:Day Name
  1fafa463-e820-45ac-b0f7-045e8088be78, !- Holiday Schedule:Day Name
  1fafa463-e820-45ac-b0f7-045e8088be78, !- SummerDesignDay Schedule:Day Name
  1fafa463-e820-45ac-b0f7-045e8088be78, !- WinterDesignDay Schedule:Day Name
  1fafa463-e820-45ac-b0f7-045e8088be78, !- CustomDay1 Schedule:Day Name
  1fafa463-e820-45ac-b0f7-045e8088be78; !- CustomDay2 Schedule:Day Name

Schedule:Week:Daily, NatVentAvail_S17_0_15,
  402e8b6c-9133-4e67-9f3f-37b2c4c05176, !- Sunday Schedule:Day Name
  fe23925d-fab1-4248-a692-97d491659a70, !- Monday Schedule:Day Name
  982ff522-56c8-43c2-9f99-723589ab824a, !- Tuesday Schedule:Day Name
  1cdd53bd-e8d3-461e-bf4f-7a00374b1e25, !- Wednesday Schedule:Day Name
  c937e756-0548-436b-8744-6ab04d838d06, !- Thursday Schedule:Day Name
  d8c4cfa4-6093-4ad9-9ed5-6e695b8785b4, !- Friday Schedule:Day Name
  666a431e-6fe4-4861-b7bf-110327c6cf3a, !- Saturday Schedule:Day Name
  402e8b6c-9133-4e67-9f3f-37b2c4c05176, !- Holiday Schedule:Day Name
  402e8b6c-9133-4e67-9f3f-37b2c4c05176, !- SummerDesignDay Schedule:Day Name
  402e8b6c-9133-4e67-9f3f-37b2c4c05176, !- WinterDesignDay Schedule:Day Name
  402e8b6c-9133-4e67-9f3f-37b2c4c05176, !- CustomDay1 Schedule:Day Name
  402e8b6c-9133-4e67-9f3f-37b2c4c05176; !- CustomDay2 Schedule:Day Name

Schedule:Week:Daily, NatVentAvail_S17_0_16,
  9ea8dee2-0c5e-45d2-bc8a-5f82c4ee92eb, !- Sunday Schedule:Day Name
  7a3566af-51a2-448d-87ad-0a7a17fc473b, !- Monday Schedule:Day Name
  64b9e4ca-fbca-48f0-a8a3-dd0bc71448ec, !- Tuesday Schedule:Day Name
  6e3cc8d2-903b-434c-bf43-a3ceebb1c68c, !- Wednesday Schedule:Day Name
  d8b907dd-16a7-4ebf-8c41-b4b8522f0e96, !- Thursday Schedule:Day Name
  5df8d543-3edc-47c5-8867-4a471c14d1c6, !- Friday Schedule:Day Name
  06515e7c-408a-4098-9a50-0b4533809750, !- Saturday Schedule:Day Name
  9ea8dee2-0c5e-45d2-bc8a-5f82c4ee92eb, !- Holiday Schedule:Day Name
  9ea8dee2-0c5e-45d2-bc8a-5f82c4ee92eb, !- SummerDesignDay Schedule:Day Name
  9ea8dee2-0c5e-45d2-bc8a-5f82c4ee92eb, !- WinterDesignDay Schedule:Day Name
  9ea8dee2-0c5e-45d2-bc8a-5f82c4ee92eb, !- CustomDay1 Schedule:Day Name
  9ea8dee2-0c5e-45d2-bc8a-5f82c4ee92eb; !- CustomDay2 Schedule:Day Name

Schedule:Week:Daily, NatVentAvail_S17_0_17,
  5ec9e65c-278b-49ac-a68f-98665dc0bdbb, !- Sunday Schedule:Day Name
  530862d7-9392-45ab-b72f-b54556664677, !- Monday Schedule:Day Name
  bbe2257e-95be-49a6-9cc7-6d4ac954d26f, !- Tuesday Schedule:Day Name
  d974d193-2686-4782-9ffc-b3765c61a15a, !- Wednesday Schedule:Day Name
  76c09608-64f6-426f-bc13-3b99794576fb, !- Thursday Schedule:Day Name
  c8ed5aa7-089f-401d-8120-3030bc3ab118, !- Friday Schedule:Day Name
  ca573f34-dcf1-487b-b70e-b80535cd36ec, !- Saturday Schedule:Day Name
  5ec9e65c-278b-49ac-a68f-98665dc0bdbb, !- Holiday Schedule:Day Name
  5ec9e65c-278b-49ac-a68f-98665dc0bdbb, !- SummerDesignDay Schedule:Day Name
  5ec9e65c-278b-49ac-a68f-98665dc0bdbb, !- WinterDesignDay Schedule:Day Name
  5ec9e65c-278b-49ac-a68f-98665dc0bdbb, !- CustomDay1 Schedule:Day Name
  5ec9e65c-278b-49ac-a68f-98665dc0bdbb; !- CustomDay2 Schedule:Day Name

Schedule:Week:Daily, NatVentAvail_S17_0_18,
  cd81066e-137e-4c09-bccc-84f0dc04c29b, !- Sunday Schedule:Day Name
  c78852ba-43e5-4d9f-a3bd-e8a89c3dc1ec, !- Monday Schedule:Day Name
  3774bc3a-6c2e-48d6-81e6-19a5b794aef4, !- Tuesday Schedule:Day Name
  cd81066e-137e-4c09-bccc-84f0dc04c29b, !- Wednesday Schedule:Day Name
  098c5daf-0cc1-4bd6-bd1a-2f74cbd82e50, !- Thursday Schedule:Day Name
  766f3a0c-be5d-4fcd-bba5-dc280e041cdc, !- Friday Schedule:Day Name
  8e2893e6-f6c0-4ab4-bbf0-4fbf708ac49e, !- Saturday Schedule:Day Name
  cd81066e-137e-4c09-bccc-84f0dc04c29b, !- Holiday Schedule:Day Name
  cd81066e-137e-4c09-bccc-84f0dc04c29b, !- SummerDesignDay Schedule:Day Name
  cd81066e-137e-4c09-bccc-84f0dc04c29b, !- WinterDesignDay Schedule:Day Name
  cd81066e-137e-4c09-bccc-84f0dc04c29b, !- CustomDay1 Schedule:Day Name
  cd81066e-137e-4c09-bccc-84f0dc04c29b; !- CustomDay2 Schedule:Day Name

Schedule:Week:Daily, NatVentAvail_S17_0_19,
  582272c4-11dd-4123-9968-30791cf84bbc, !- Sunday Schedule:Day Name
  ad819a73-bdaa-46ab-9935-679f1109f9dc, !- Monday Schedule:Day Name
  ea1c23c2-f653-41d4-9e4a-ca93569cd30e, !- Tuesday Schedule:Day Name
  d6e612c7-1fcf-4ffd-bd0b-4b889f909098, !- Wednesday Schedule:Day Name
  825ff713-df9c-479d-9701-f4badd3bc821, !- Thursday Schedule:Day Name
  82e3d9b1-5c39-4174-b9e2-8db07674f0a7, !- Friday Schedule:Day Name
  030357f4-a17e-4df8-9fb6-acdfd1bef41b, !- Saturday Schedule:Day Name
  582272c4-11dd-4123-9968-30791cf84bbc, !- Holiday Schedule:Day Name
  582272c4-11dd-4123-9968-30791cf84bbc, !- SummerDesignDay Schedule:Day Name
  582272c4-11dd-4123-9968-30791cf84bbc, !- WinterDesignDay Schedule:Day Name
  582272c4-11dd-4123-9968-30791cf84bbc, !- CustomDay1 Schedule:Day Name
  582272c4-11dd-4123-9968-30791cf84bbc; !- CustomDay2 Schedule:Day Name

Schedule:Week:Daily, NatVentAvail_S17_0_20,
  4a3d3433-5c31-4e00-ad36-0d27a46186b6, !- Sunday Schedule:Day Name
  970b9e38-1578-4226-96b1-1c8272276cc1, !- Monday Schedule:Day Name
  582272c4-11dd-4123-9968-30791cf84bbc, !- Tuesday Schedule:Day Name
  94484655-902a-45bd-8d8b-092674ad4fa0, !- Wednesday Schedule:Day Name
  79fe45ca-36b4-4d4f-979e-053db857d759, !- Thursday Schedule:Day Name
  a9e66798-b3df-4874-8134-08d9b26ede38, !- Friday Schedule:Day Name
  ae43de32-fb56-4e97-8269-d61590cbb33a, !- Saturday Schedule:Day Name
  4a3d3433-5c31-4e00-ad36-0d27a46186b6, !- Holiday Schedule:Day Name
  4a3d3433-5c31-4e00-ad36-0d27a46186b6, !- SummerDesignDay Schedule:Day Name
  4a3d3433-5c31-4e00-ad36-0d27a46186b6, !- WinterDesignDay Schedule:Day Name
  4a3d3433-5c31-4e00-ad36-0d27a46186b6, !- CustomDay1 Schedule:Day Name
  4a3d3433-5c31-4e00-ad36-0d27a46186b6; !- CustomDay2 Schedule:Day Name

Schedule:Week:Daily, NatVentAvail_S17_0_21,
  9ca90cbe-b7d7-401e-85f1-6ccf45c5a1ff, !- Sunday Schedule:Day Name
  684e7cbb-a94f-4970-a340-6cadfa7648fc, !- Monday Schedule:Day Name
  a0c6fcf1-d50f-445b-9d6b-a134e9c70b15, !- Tuesday Schedule:Day Name
  4b54abea-f727-42e1-922a-d229dd492388, !- Wednesday Schedule:Day Name
  8ac6d65e-b0cc-4c53-8c52-1ec210f5e02b, !- Thursday Schedule:Day Name
  8c58ca0c-21a0-4efc-bc7f-8cb9db739b0c, !- Friday Schedule:Day Name
  23dd26d4-7c6b-45da-a26a-1c8a03cb5fde, !- Saturday Schedule:Day Name
  9ca90cbe-b7d7-401e-85f1-6ccf45c5a1ff, !- Holiday Schedule:Day Name
  9ca90cbe-b7d7-401e-85f1-6ccf45c5a1ff, !- SummerDesignDay Schedule:Day Name
  9ca90cbe-b7d7-401e-85f1-6ccf45c5a1ff, !- WinterDesignDay Schedule:Day Name
  9ca90cbe-b7d7-401e-85f1-6ccf45c5a1ff, !- CustomDay1 Schedule:Day Name
  9ca90cbe-b7d7-401e-85f1-6ccf45c5a1ff; !- CustomDay2 Schedule:Day Name

Schedule:Week:Daily, NatVentAvail_S17_0_22,
  75772aa4-2169-4592-a0ce-d46cc9314986, !- Sunday Schedule:Day Name
  a451ccb8-5c74-41f9-8f72-676cd426b859, !- Monday Schedule:Day Name
  a839532f-f460-4a31-862c-5278210fda82, !- Tuesday Schedule:Day Name
  85b4ee84-94cf-41b0-87e8-e2d63fb32b35, !- Wednesday Schedule:Day Name
  b2fef504-51d7-4114-a156-b0cbc70e1e6f, !- Thursday Schedule:Day Name
  47a75b71-2e69-4fe2-a5c7-3ae50deb6071, !- Friday Schedule:Day Name
  9dc2f2c1-899f-4b0a-b792-ac2eeb1a4e6c, !- Saturday Schedule:Day Name
  75772aa4-2169-4592-a0ce-d46cc9314986, !- Holiday Schedule:Day Name
  75772aa4-2169-4592-a0ce-d46cc9314986, !- SummerDesignDay Schedule:Day Name
  75772aa4-2169-4592-a0ce-d46cc9314986, !- WinterDesignDay Schedule:Day Name
  75772aa4-2169-4592-a0ce-d46cc9314986, !- CustomDay1 Schedule:Day Name
  75772aa4-2169-4592-a0ce-d46cc9314986; !- CustomDay2 Schedule:Day Name

Schedule:Week:Daily, NatVentAvail_S17_0_23,
  de76fccf-bdd8-4dee-a8f0-80d4afe09894, !- Sunday Schedule:Day Name
  35e4b8b8-7931-47f1-8a92-fb01ed79bf69, !- Monday Schedule:Day Name
  2f20388d-a961-49d9-ad43-aa9841f316d3, !- Tuesday Schedule:Day Name
  28009b03-ff7d-4700-89b0-73a925d600f8, !- Wednesday Schedule:Day Name
  3dfb2452-3345-4546-bbea-e97b60ef5653, !- Thursday Schedule:Day Name
  9b80a28f-8808-4018-933a-d637393512a2, !- Friday Schedule:Day Name
  ac8b5e38-611a-4206-bae1-e5b018e1bd51, !- Saturday Schedule:Day Name
  de76fccf-bdd8-4dee-a8f0-80d4afe09894, !- Holiday Schedule:Day Name
  de76fccf-bdd8-4dee-a8f0-80d4afe09894, !- SummerDesignDay Schedule:Day Name
  de76fccf-bdd8-4dee-a8f0-80d4afe09894, !- WinterDesignDay Schedule:Day Name
  de76fccf-bdd8-4dee-a8f0-80d4afe09894, !- CustomDay1 Schedule:Day Name
  de76fccf-bdd8-4dee-a8f0-80d4afe09894; !- CustomDay2 Schedule:Day Name

Schedule:Week:Daily, NatVentAvail_S17_0_24,
  0513d88d-e255-4747-996b-387eee731851, !- Sunday Schedule:Day Name
  a2c22fdb-a6d6-4b8f-98ac-38466f0143ab, !- Monday Schedule:Day Name
  2c1562ea-90de-49ec-bc8f-d088cb3ab611, !- Tuesday Schedule:Day Name
  e98c138a-8139-4dc5-be72-7e91f353fc18, !- Wednesday Schedule:Day Name
  179811c3-fbc3-4395-a129-422f7bd053bd, !- Thursday Schedule:Day Name
  aa312df4-6d07-4c6a-9f41-5fc908026b9c, !- Friday Schedule:Day Name
  2653bfb1-b2ec-438a-90ad-9d7f59078d48, !- Saturday Schedule:Day Name
  0513d88d-e255-4747-996b-387eee731851, !- Holiday Schedule:Day Name
  0513d88d-e255-4747-996b-387eee731851, !- SummerDesignDay Schedule:Day Name
  0513d88d-e255-4747-996b-387eee731851, !- WinterDesignDay Schedule:Day Name
  0513d88d-e255-4747-996b-387eee731851, !- CustomDay1 Schedule:Day Name
  0513d88d-e255-4747-996b-387eee731851; !- CustomDay2 Schedule:Day Name

Schedule:Week:Daily, NatVentAvail_S17_0_25,
  91fff894-1089-4998-a3ff-2e4b30e902e7, !- Sunday Schedule:Day Name
  695731ed-541a-4ab9-822e-db7b09f1cc81, !- Monday Schedule:Day Name
  57295fca-58e6-4d14-8e2b-0a7e50582ef8, !- Tuesday Schedule:Day Name
  3a8f4b8a-146a-4741-9e50-cff53a702171, !- Wednesday Schedule:Day Name
  fbcbd3fe-ebe2-48b6-808e-bdf57ac485ed, !- Thursday Schedule:Day Name
  822a8e29-83aa-4ff9-805a-434e80c4ec4c, !- Friday Schedule:Day Name
  6a60aca6-6272-4b6c-8ce4-7c5c88587508, !- Saturday Schedule:Day Name
  91fff894-1089-4998-a3ff-2e4b30e902e7, !- Holiday Schedule:Day Name
  91fff894-1089-4998-a3ff-2e4b30e902e7, !- SummerDesignDay Schedule:Day Name
  91fff894-1089-4998-a3ff-2e4b30e902e7, !- WinterDesignDay Schedule:Day Name
  91fff894-1089-4998-a3ff-2e4b30e902e7, !- CustomDay1 Schedule:Day Name
  91fff894-1089-4998-a3ff-2e4b30e902e7; !- CustomDay2 Schedule:Day Name

Schedule:Week:Daily, NatVentAvail_S17_0_26,
  b7b0c29f-3db2-43dd-9901-3253e6b114d2, !- Sunday Schedule:Day Name
  45508c96-c271-43ef-b818-c2c638c7d426, !- Monday Schedule:Day Name
  9d2da147-30f9-45d9-a8b8-772203a363bd, !- Tuesday Schedule:Day Name
  0f0b25a3-fa7a-47e7-9f1e-22465bdb1144, !- Wednesday Schedule:Day Name
  a2469ce8-079f-4813-8533-54a8a4a7ec0c, !- Thursday Schedule:Day Name
  160f9c7b-d476-49ff-9fbd-6b41c0ca5b4a, !- Friday Schedule:Day Name
  606b1700-8a8a-4dc2-bcb6-699d72fbcc7e, !- Saturday Schedule:Day Name
  b7b0c29f-3db2-43dd-9901-3253e6b114d2, !- Holiday Schedule:Day Name
  b7b0c29f-3db2-43dd-9901-3253e6b114d2, !- SummerDesignDay Schedule:Day Name
  b7b0c29f-3db2-43dd-9901-3253e6b114d2, !- WinterDesignDay Schedule:Day Name
  b7b0c29f-3db2-43dd-9901-3253e6b114d2, !- CustomDay1 Schedule:Day Name
  b7b0c29f-3db2-43dd-9901-3253e6b114d2; !- CustomDay2 Schedule:Day Name

Schedule:Week:Daily, NatVentAvail_S17_0_27,
  65f580ec-6277-48f3-bda7-8a92a0fb2796, !- Sunday Schedule:Day Name
  7e72ecbc-ce6d-4b62-ac38-9320f3a4759b, !- Monday Schedule:Day Name
  9f999810-86f6-46cd-8465-7ea98df282e8, !- Tuesday Schedule:Day Name
  1c6477a8-279c-4fa2-9d99-68f386611f34, !- Wednesday Schedule:Day Name
  5be95309-829d-4cec-9992-7ead9f59b38b, !- Thursday Schedule:Day Name
  ae22bb0a-4c99-451a-842c-74203a045fe3, !- Friday Schedule:Day Name
  65a87164-b3cd-4363-a0be-ee22940b6275, !- Saturday Schedule:Day Name
  65f580ec-6277-48f3-bda7-8a92a0fb2796, !- Holiday Schedule:Day Name
  65f580ec-6277-48f3-bda7-8a92a0fb2796, !- SummerDesignDay Schedule:Day Name
  65f580ec-6277-48f3-bda7-8a92a0fb2796, !- WinterDesignDay Schedule:Day Name
  65f580ec-6277-48f3-bda7-8a92a0fb2796, !- CustomDay1 Schedule:Day Name
  65f580ec-6277-48f3-bda7-8a92a0fb2796; !- CustomDay2 Schedule:Day Name

Schedule:Week:Daily, NatVentAvail_S17_0_28,
  52b250cf-30a9-4db0-986f-289c2a7cd733, !- Sunday Schedule:Day Name
  dac3e0f9-3491-4e57-bc9a-afae7ce91f27, !- Monday Schedule:Day Name
  1ebf1fcf-e417-4b3e-812d-74ab80396352, !- Tuesday Schedule:Day Name
  bed57fee-2056-4a78-8198-3f14cc4dbccf, !- Wednesday Schedule:Day Name
  d974d193-2686-4782-9ffc-b3765c61a15a, !- Thursday Schedule:Day Name
  1c299e64-2fba-4fce-9bb8-d1d341ba3893, !- Friday Schedule:Day Name
  9ca90cbe-b7d7-401e-85f1-6ccf45c5a1ff, !- Saturday Schedule:Day Name
  52b250cf-30a9-4db0-986f-289c2a7cd733, !- Holiday Schedule:Day Name
  52b250cf-30a9-4db0-986f-289c2a7cd733, !- SummerDesignDay Schedule:Day Name
  52b250cf-30a9-4db0-986f-289c2a7cd733, !- WinterDesignDay Schedule:Day Name
  52b250cf-30a9-4db0-986f-289c2a7cd733, !- CustomDay1 Schedule:Day Name
  52b250cf-30a9-4db0-986f-289c2a7cd733; !- CustomDay2 Schedule:Day Name

Schedule:Week:Daily, NatVentAvail_S17_0_29,
  b0bc0f61-c4b5-4b52-bf28-dc2ddffa9202, !- Sunday Schedule:Day Name
  5e4ce27b-cb97-4e16-99c2-011b14feb967, !- Monday Schedule:Day Name
  9f243400-03c4-4387-8d7e-d7bc2dc5475f, !- Tuesday Schedule:Day Name
  763f4b5b-1f6c-45c4-8f3a-01a539791703, !- Wednesday Schedule:Day Name
  d974d193-2686-4782-9ffc-b3765c61a15a, !- Thursday Schedule:Day Name
  d974d193-2686-4782-9ffc-b3765c61a15a, !- Friday Schedule:Day Name
  d528ecc2-3a71-4809-8f35-e5591cdc325a, !- Saturday Schedule:Day Name
  b0bc0f61-c4b5-4b52-bf28-dc2ddffa9202, !- Holiday Schedule:Day Name
  b0bc0f61-c4b5-4b52-bf28-dc2ddffa9202, !- SummerDesignDay Schedule:Day Name
  b0bc0f61-c4b5-4b52-bf28-dc2ddffa9202, !- WinterDesignDay Schedule:Day Name
  b0bc0f61-c4b5-4b52-bf28-dc2ddffa9202, !- CustomDay1 Schedule:Day Name
  b0bc0f61-c4b5-4b52-bf28-dc2ddffa9202; !- CustomDay2 Schedule:Day Name

Schedule:Week:Daily, NatVentAvail_S17_0_30,
  bfcd000f-6657-4bf1-949c-33c9a105fd6e, !- Sunday Schedule:Day Name
  aafd9588-8a73-4686-a0b1-43f667d52a97, !- Monday Schedule:Day Name
  395a23c3-b6b4-4097-89b1-4f89d4083139, !- Tuesday Schedule:Day Name
  30da284c-5dca-4c88-863e-eb646377d63a, !- Wednesday Schedule:Day Name
  b43fce6d-735d-471e-9a4e-4ba7b0025a88, !- Thursday Schedule:Day Name
  b9d924dc-6218-4a3b-9526-ec1276b54b09, !- Friday Schedule:Day Name
  07e0bbaf-0093-4174-946f-9e667d264f70, !- Saturday Schedule:Day Name
  bfcd000f-6657-4bf1-949c-33c9a105fd6e, !- Holiday Schedule:Day Name
  bfcd000f-6657-4bf1-949c-33c9a105fd6e, !- SummerDesignDay Schedule:Day Name
  bfcd000f-6657-4bf1-949c-33c9a105fd6e, !- WinterDesignDay Schedule:Day Name
  bfcd000f-6657-4bf1-949c-33c9a105fd6e, !- CustomDay1 Schedule:Day Name
  bfcd000f-6657-4bf1-949c-33c9a105fd6e; !- CustomDay2 Schedule:Day Name

Schedule:Week:Daily, NatVentAvail_S17_0_31,
  dc573b19-2802-4ac1-89ff-cc38adaf65b3, !- Sunday Schedule:Day Name
  94484655-902a-45bd-8d8b-092674ad4fa0, !- Monday Schedule:Day Name
  9f243400-03c4-4387-8d7e-d7bc2dc5475f, !- Tuesday Schedule:Day Name
  9addbb18-d5ec-4cd6-adf6-2ee4d387c279, !- Wednesday Schedule:Day Name
  bd5e9481-64a7-4eaa-a43a-64824bc40272, !- Thursday Schedule:Day Name
  9202f287-4b87-4056-ab0b-0b81f7d1c492, !- Friday Schedule:Day Name
  33bc15ab-744b-428e-877b-c407896f31b5, !- Saturday Schedule:Day Name
  dc573b19-2802-4ac1-89ff-cc38adaf65b3, !- Holiday Schedule:Day Name
  dc573b19-2802-4ac1-89ff-cc38adaf65b3, !- SummerDesignDay Schedule:Day Name
  dc573b19-2802-4ac1-89ff-cc38adaf65b3, !- WinterDesignDay Schedule:Day Name
  dc573b19-2802-4ac1-89ff-cc38adaf65b3, !- CustomDay1 Schedule:Day Name
  dc573b19-2802-4ac1-89ff-cc38adaf65b3; !- CustomDay2 Schedule:Day Name

Schedule:Week:Daily, NatVentAvail_S17_0_32,
  992b67ff-fe72-4ff7-ad69-96e24b4b4df9, !- Sunday Schedule:Day Name
  7657e75c-8576-4e21-b1c7-82ce2867edf4, !- Monday Schedule:Day Name
  a7c9fe19-fe7f-4eb4-b45f-98fe3a5527c5, !- Tuesday Schedule:Day Name
  f7cdd27f-7df3-4f36-84d1-b1585ce04bec, !- Wednesday Schedule:Day Name
  d1744ad3-4e72-4502-be93-4886e1ac6287, !- Thursday Schedule:Day Name
  0be99d44-deb1-43cd-bcc7-995607d0fd97, !- Friday Schedule:Day Name
  c63af397-305f-4b1a-8c20-da4a58ab338c, !- Saturday Schedule:Day Name
  992b67ff-fe72-4ff7-ad69-96e24b4b4df9, !- Holiday Schedule:Day Name
  992b67ff-fe72-4ff7-ad69-96e24b4b4df9, !- SummerDesignDay Schedule:Day Name
  992b67ff-fe72-4ff7-ad69-96e24b4b4df9, !- WinterDesignDay Schedule:Day Name
  992b67ff-fe72-4ff7-ad69-96e24b4b4df9, !- CustomDay1 Schedule:Day Name
  992b67ff-fe72-4ff7-ad69-96e24b4b4df9; !- CustomDay2 Schedule:Day Name

Schedule:Week:Daily, NatVentAvail_S17_0_33,
  6eef18be-a373-493d-b3cf-ec9a95af89e6, !- Sunday Schedule:Day Name
  d78a9077-5419-44ef-b5de-57504073fa16, !- Monday Schedule:Day Name
  8331e6d2-ce71-48ae-9648-af841f643f12, !- Tuesday Schedule:Day Name
  be5be84a-766d-401a-81e2-b4fcbafea855, !- Wednesday Schedule:Day Name
  8712eee0-404e-4321-86fc-2fab5af1df95, !- Thursday Schedule:Day Name
  a0c6fcf1-d50f-445b-9d6b-a134e9c70b15, !- Friday Schedule:Day Name
  f50c5f85-8bf2-400d-995b-9f336467659d, !- Saturday Schedule:Day Name
  6eef18be-a373-493d-b3cf-ec9a95af89e6, !- Holiday Schedule:Day Name
  6eef18be-a373-493d-b3cf-ec9a95af89e6, !- SummerDesignDay Schedule:Day Name
  6eef18be-a373-493d-b3cf-ec9a95af89e6, !- WinterDesignDay Schedule:Day Name
  6eef18be-a373-493d-b3cf-ec9a95af89e6, !- CustomDay1 Schedule:Day Name
  6eef18be-a373-493d-b3cf-ec9a95af89e6; !- CustomDay2 Schedule:Day Name

Schedule:Week:Daily, NatVentAvail_S17_0_34,
  8efc6617-0a14-4e2a-ad5c-2a6064d475ce, !- Sunday Schedule:Day Name
  e9ffeb0e-5e74-460b-9b0d-1a75f276f782, !- Monday Schedule:Day Name
  154ac6fe-8fb9-4f76-a37d-10a1e5069a27, !- Tuesday Schedule:Day Name
  dd520b65-aea7-4648-80dd-9b3e181c3951, !- Wednesday Schedule:Day Name
  ed2dd2a0-4705-45d9-b366-4dd800bf9cce, !- Thursday Schedule:Day Name
  b831ff56-2d01-488d-9154-288df4592700, !- Friday Schedule:Day Name
  f29f44c4-4c75-40a4-9214-85368da843e1, !- Saturday Schedule:Day Name
  8efc6617-0a14-4e2a-ad5c-2a6064d475ce, !- Holiday Schedule:Day Name
  8efc6617-0a14-4e2a-ad5c-2a6064d475ce, !- SummerDesignDay Schedule:Day Name
  8efc6617-0a14-4e2a-ad5c-2a6064d475ce, !- WinterDesignDay Schedule:Day Name
  8efc6617-0a14-4e2a-ad5c-2a6064d475ce, !- CustomDay1 Schedule:Day Name
  8efc6617-0a14-4e2a-ad5c-2a6064d475ce; !- CustomDay2 Schedule:Day Name

Schedule:Week:Daily, NatVentAvail_S17_0_35,
  236b3a5a-3e62-4cd8-a473-3beb26d3bb48, !- Sunday Schedule:Day Name
  8f973ea8-d3f0-47fa-a712-8b8124f2095f, !- Monday Schedule:Day Name
  87064229-2f4b-45b9-bb6c-0c282fc1518e, !- Tuesday Schedule:Day Name
  e17d3aff-b1fd-4cc1-a7e0-ffb300b27aef, !- Wednesday Schedule:Day Name
  f31d89e2-f4da-48a2-8c16-15f457d17bba, !- Thursday Schedule:Day Name
  f745b0d0-a055-482f-a1e4-9e99ad588fbd, !- Friday Schedule:Day Name
  74e189e6-b24c-40f0-8b5c-6e5a5149dca1, !- Saturday Schedule:Day Name
  236b3a5a-3e62-4cd8-a473-3beb26d3bb48, !- Holiday Schedule:Day Name
  236b3a5a-3e62-4cd8-a473-3beb26d3bb48, !- SummerDesignDay Schedule:Day Name
  236b3a5a-3e62-4cd8-a473-3beb26d3bb48, !- WinterDesignDay Schedule:Day Name
  236b3a5a-3e62-4cd8-a473-3beb26d3bb48, !- CustomDay1 Schedule:Day Name
  236b3a5a-3e62-4cd8-a473-3beb26d3bb48; !- CustomDay2 Schedule:Day Name

Schedule:Week:Daily, NatVentAvail_S17_0_36,
  1c2463e0-c47e-4629-a3c2-c36db15e1af8, !- Sunday Schedule:Day Name
  4a3d3433-5c31-4e00-ad36-0d27a46186b6, !- Monday Schedule:Day Name
  50f5adca-142b-4f93-abbb-3dc690b59aa2, !- Tuesday Schedule:Day Name
  985561fa-b3b8-4bb9-82db-366112689a19, !- Wednesday Schedule:Day Name
  036ace8c-e2c6-4d0f-9ee7-9a7e737f3e99, !- Thursday Schedule:Day Name
  af250eb4-ab39-4f93-8ee1-c149dbe89c17, !- Friday Schedule:Day Name
  57295fca-58e6-4d14-8e2b-0a7e50582ef8, !- Saturday Schedule:Day Name
  1c2463e0-c47e-4629-a3c2-c36db15e1af8, !- Holiday Schedule:Day Name
  1c2463e0-c47e-4629-a3c2-c36db15e1af8, !- SummerDesignDay Schedule:Day Name
  1c2463e0-c47e-4629-a3c2-c36db15e1af8, !- WinterDesignDay Schedule:Day Name
  1c2463e0-c47e-4629-a3c2-c36db15e1af8, !- CustomDay1 Schedule:Day Name
  1c2463e0-c47e-4629-a3c2-c36db15e1af8; !- CustomDay2 Schedule:Day Name

Schedule:Week:Daily, NatVentAvail_S17_0_37,
  d974d193-2686-4782-9ffc-b3765c61a15a, !- Sunday Schedule:Day Name
  1559ebaf-3d23-4139-b2e9-8c481f0e7c14, !- Monday Schedule:Day Name
  e0aec5a3-1b72-4e6b-afbb-2fc763c44da1, !- Tuesday Schedule:Day Name
  f4597424-6154-4ca2-96ff-321031db2599, !- Wednesday Schedule:Day Name
  b671d1a5-2d69-4804-8a70-06291134641a, !- Thursday Schedule:Day Name
  bbc0bc8d-893e-4d03-8491-546f19653f86, !- Friday Schedule:Day Name
  3afea486-2583-4550-94fb-fdb7084e117b, !- Saturday Schedule:Day Name
  d974d193-2686-4782-9ffc-b3765c61a15a, !- Holiday Schedule:Day Name
  d974d193-2686-4782-9ffc-b3765c61a15a, !- SummerDesignDay Schedule:Day Name
  d974d193-2686-4782-9ffc-b3765c61a15a, !- WinterDesignDay Schedule:Day Name
  d974d193-2686-4782-9ffc-b3765c61a15a, !- CustomDay1 Schedule:Day Name
  d974d193-2686-4782-9ffc-b3765c61a15a; !- CustomDay2 Schedule:Day Name

Schedule:Week:Daily, NatVentAvail_S17_0_38,
  2c943585-45a3-44fd-9bfa-927e39befbb2, !- Sunday Schedule:Day Name
  f0d82c88-69e3-4069-81b6-852a321f0d2e, !- Monday Schedule:Day Name
  1c2463e0-c47e-4629-a3c2-c36db15e1af8, !- Tuesday Schedule:Day Name
  8ad3db3a-c393-4c17-8ab3-9f8a9cd223e8, !- Wednesday Schedule:Day Name
  64775ce5-51f6-479d-936c-666da4c0e263, !- Thursday Schedule:Day Name
  467233ab-17b9-46ed-b333-470cf25a3b61, !- Friday Schedule:Day Name
  400fbd89-6a9a-4f3f-b961-96aebd289ffe, !- Saturday Schedule:Day Name
  2c943585-45a3-44fd-9bfa-927e39befbb2, !- Holiday Schedule:Day Name
  2c943585-45a3-44fd-9bfa-927e39befbb2, !- SummerDesignDay Schedule:Day Name
  2c943585-45a3-44fd-9bfa-927e39befbb2, !- WinterDesignDay Schedule:Day Name
  2c943585-45a3-44fd-9bfa-927e39befbb2, !- CustomDay1 Schedule:Day Name
  2c943585-45a3-44fd-9bfa-927e39befbb2; !- CustomDay2 Schedule:Day Name

Schedule:Week:Daily, NatVentAvail_S17_0_39,
  a1530b9f-aa9a-44a0-9089-bc16a00b669e, !- Sunday Schedule:Day Name
  f2f22715-208d-480c-bc34-0e05d9e07550, !- Monday Schedule:Day Name
  d9334854-d197-4658-af41-34ca6e427bc2, !- Tuesday Schedule:Day Name
  d7d4fcac-1618-4ffc-910c-99a80cf8ea90, !- Wednesday Schedule:Day Name
  6d467089-60c1-48d7-b5e6-d764d023333e, !- Thursday Schedule:Day Name
  e193737e-c004-4530-8a46-aeac849c8fda, !- Friday Schedule:Day Name
  d974d193-2686-4782-9ffc-b3765c61a15a, !- Saturday Schedule:Day Name
  a1530b9f-aa9a-44a0-9089-bc16a00b669e, !- Holiday Schedule:Day Name
  a1530b9f-aa9a-44a0-9089-bc16a00b669e, !- SummerDesignDay Schedule:Day Name
  a1530b9f-aa9a-44a0-9089-bc16a00b669e, !- WinterDesignDay Schedule:Day Name
  a1530b9f-aa9a-44a0-9089-bc16a00b669e, !- CustomDay1 Schedule:Day Name
  a1530b9f-aa9a-44a0-9089-bc16a00b669e; !- CustomDay2 Schedule:Day Name

Schedule:Week:Daily, NatVentAvail_S17_0_40,
  763f4b5b-1f6c-45c4-8f3a-01a539791703, !- Sunday Schedule:Day Name
  4fca6940-469e-4616-a284-faedae0a86b0, !- Monday Schedule:Day Name
  933d718d-a17e-42a0-a095-e51b434c67a3, !- Tuesday Schedule:Day Name
  e26969a6-b844-423a-8de8-f05bae88bc7f, !- Wednesday Schedule:Day Name
  6f99fe73-5a6b-4cd7-9699-fe41b9b4fdb1, !- Thursday Schedule:Day Name
  d31861b0-2c0d-444b-bbe2-dcfba0b70559, !- Friday Schedule:Day Name
  44c12b3d-d4a0-473f-af46-3b3ba23a5a72, !- Saturday Schedule:Day Name
  763f4b5b-1f6c-45c4-8f3a-01a539791703, !- Holiday Schedule:Day Name
  763f4b5b-1f6c-45c4-8f3a-01a539791703, !- SummerDesignDay Schedule:Day Name
  763f4b5b-1f6c-45c4-8f3a-01a539791703, !- WinterDesignDay Schedule:Day Name
  763f4b5b-1f6c-45c4-8f3a-01a539791703, !- CustomDay1 Schedule:Day Name
  763f4b5b-1f6c-45c4-8f3a-01a539791703; !- CustomDay2 Schedule:Day Name

Schedule:Week:Daily, NatVentAvail_S17_0_41,
  edb50731-ecd9-4187-b2f2-7591e84682a3, !- Sunday Schedule:Day Name
  dbdb7627-30c7-42a3-b13c-dc2dc4ad6f68, !- Monday Schedule:Day Name
  4cea222c-acbf-483a-a854-c9ae00a703bd, !- Tuesday Schedule:Day Name
  96287ec3-835f-49f9-9695-d3bb7075f5fa, !- Wednesday Schedule:Day Name
  9f6f4aa2-a0df-4436-86a6-cf55351a6b03, !- Thursday Schedule:Day Name
  329b9bb8-79bf-4755-863b-a99b57634229, !- Friday Schedule:Day Name
  85756e39-209f-4d62-96e1-c15adcc0d110, !- Saturday Schedule:Day Name
  edb50731-ecd9-4187-b2f2-7591e84682a3, !- Holiday Schedule:Day Name
  edb50731-ecd9-4187-b2f2-7591e84682a3, !- SummerDesignDay Schedule:Day Name
  edb50731-ecd9-4187-b2f2-7591e84682a3, !- WinterDesignDay Schedule:Day Name
  edb50731-ecd9-4187-b2f2-7591e84682a3, !- CustomDay1 Schedule:Day Name
  edb50731-ecd9-4187-b2f2-7591e84682a3; !- CustomDay2 Schedule:Day Name

Schedule:Week:Daily, NatVentAvail_S17_0_42,
  cf1da3c6-321d-4a6b-8af2-95262897b228, !- Sunday Schedule:Day Name
  001355dc-0c9d-452f-a199-877305320c6a, !- Monday Schedule:Day Name
  cfbe6a16-78f1-474a-8cc6-5fd69820ab00, !- Tuesday Schedule:Day Name
  3b3e01ca-0117-4fcc-b841-a6c252759f2a, !- Wednesday Schedule:Day Name
  2f84931d-97e8-4039-b7ee-3bc8e6d3ee7f, !- Thursday Schedule:Day Name
  3c421ea3-05dc-4a9a-b2e8-f541aad9510c, !- Friday Schedule:Day Name
  5f3b531b-a65b-4ba6-9ae6-bd3fa6683878, !- Saturday Schedule:Day Name
  cf1da3c6-321d-4a6b-8af2-95262897b228, !- Holiday Schedule:Day Name
  cf1da3c6-321d-4a6b-8af2-95262897b228, !- SummerDesignDay Schedule:Day Name
  cf1da3c6-321d-4a6b-8af2-95262897b228, !- WinterDesignDay Schedule:Day Name
  cf1da3c6-321d-4a6b-8af2-95262897b228, !- CustomDay1 Schedule:Day Name
  cf1da3c6-321d-4a6b-8af2-95262897b228; !- CustomDay2 Schedule:Day Name

Schedule:Week:Daily, NatVentAvail_S17_0_43,
  98e16f1b-b9c2-4df9-960e-1da2fcac8736, !- Sunday Schedule:Day Name
  3e5202b2-92b1-4bd3-b872-ac2f51082082, !- Monday Schedule:Day Name
  67f4b09b-04ed-4458-87ac-27ae710c4644, !- Tuesday Schedule:Day Name
  d3c0964f-abe3-4197-bd42-60dc30725a15, !- Wednesday Schedule:Day Name
  6d196519-915d-44e8-bef6-4e7820e91310, !- Thursday Schedule:Day Name
  ab3ab5c6-cdb9-4f25-9e36-9b180251c96d, !- Friday Schedule:Day Name
  a960b0a7-ee56-4169-bf5c-2b172a969311, !- Saturday Schedule:Day Name
  98e16f1b-b9c2-4df9-960e-1da2fcac8736, !- Holiday Schedule:Day Name
  98e16f1b-b9c2-4df9-960e-1da2fcac8736, !- SummerDesignDay Schedule:Day Name
  98e16f1b-b9c2-4df9-960e-1da2fcac8736, !- WinterDesignDay Schedule:Day Name
  98e16f1b-b9c2-4df9-960e-1da2fcac8736, !- CustomDay1 Schedule:Day Name
  98e16f1b-b9c2-4df9-960e-1da2fcac8736; !- CustomDay2 Schedule:Day Name

Schedule:Week:Daily, NatVentAvail_S17_0_44,
  f7653263-9cb9-40a3-b347-333394554e07, !- Sunday Schedule:Day Name
  83a2e5a3-8d66-4e38-acb3-6b4cbfb2f760, !- Monday Schedule:Day Name
  6e75f2a5-1717-4f66-bdfb-14e74839c568, !- Tuesday Schedule:Day Name
  17a86043-249f-4e08-9b7f-c6febccc7259, !- Wednesday Schedule:Day Name
  25eac55b-ee60-452b-9dbe-0bc5cebfb323, !- Thursday Schedule:Day Name
  acc2b245-3d8f-49b9-ad86-4034df56adf4, !- Friday Schedule:Day Name
  2fdb59e5-a4e1-4dc9-a10a-ce3436e4fa1e, !- Saturday Schedule:Day Name
  f7653263-9cb9-40a3-b347-333394554e07, !- Holiday Schedule:Day Name
  f7653263-9cb9-40a3-b347-333394554e07, !- SummerDesignDay Schedule:Day Name
  f7653263-9cb9-40a3-b347-333394554e07, !- WinterDesignDay Schedule:Day Name
  f7653263-9cb9-40a3-b347-333394554e07, !- CustomDay1 Schedule:Day Name
  f7653263-9cb9-40a3-b347-333394554e07; !- CustomDay2 Schedule:Day Name

Schedule:Week:Daily, NatVentAvail_S17_0_45,
  a4e0b79d-80da-4a7b-8d59-48567f5602fe, !- Sunday Schedule:Day Name
  aafd9588-8a73-4686-a0b1-43f667d52a97, !- Monday Schedule:Day Name
  4829eeac-7c87-4958-a49a-8a27e8abc40b, !- Tuesday Schedule:Day Name
  3a2d8f03-20a7-4868-8488-651e13e25f10, !- Wednesday Schedule:Day Name
  d9334854-d197-4658-af41-34ca6e427bc2, !- Thursday Schedule:Day Name
  85bb2c3c-e1e9-49a9-9c9f-dd179637a717, !- Friday Schedule:Day Name
  a4e0b79d-80da-4a7b-8d59-48567f5602fe, !- Saturday Schedule:Day Name
  a4e0b79d-80da-4a7b-8d59-48567f5602fe, !- Holiday Schedule:Day Name
  a4e0b79d-80da-4a7b-8d59-48567f5602fe, !- SummerDesignDay Schedule:Day Name
  a4e0b79d-80da-4a7b-8d59-48567f5602fe, !- WinterDesignDay Schedule:Day Name
  a4e0b79d-80da-4a7b-8d59-48567f5602fe, !- CustomDay1 Schedule:Day Name
  a4e0b79d-80da-4a7b-8d59-48567f5602fe; !- CustomDay2 Schedule:Day Name

Schedule:Week:Daily, NatVentAvail_S17_0_46,
  d2f2f440-4eff-4442-9606-db8f940ce1ef, !- Sunday Schedule:Day Name
  001355dc-0c9d-452f-a199-877305320c6a, !- Monday Schedule:Day Name
  87c1a482-6570-4839-a34d-419b1d4c86f5, !- Tuesday Schedule:Day Name
  e92e6a11-b13c-4078-8eac-6a77fca79159, !- Wednesday Schedule:Day Name
  84ccb1a8-6ff8-454e-a66c-c8c71aed1be8, !- Thursday Schedule:Day Name
  de4c41c6-8472-4a7a-b3e7-ab9671e58963, !- Friday Schedule:Day Name
  9aebc4d0-26e0-4a05-951b-712c09e630cd, !- Saturday Schedule:Day Name
  d2f2f440-4eff-4442-9606-db8f940ce1ef, !- Holiday Schedule:Day Name
  d2f2f440-4eff-4442-9606-db8f940ce1ef, !- SummerDesignDay Schedule:Day Name
  d2f2f440-4eff-4442-9606-db8f940ce1ef, !- WinterDesignDay Schedule:Day Name
  d2f2f440-4eff-4442-9606-db8f940ce1ef, !- CustomDay1 Schedule:Day Name
  d2f2f440-4eff-4442-9606-db8f940ce1ef; !- CustomDay2 Schedule:Day Name

Schedule:Week:Daily, NatVentAvail_S17_0_47,
  d607d840-65f3-443d-aecd-4b0e159aa238, !- Sunday Schedule:Day Name
  704ba9f1-b580-4d20-9e91-3d9c12dd0f36, !- Monday Schedule:Day Name
  fbc41778-4111-4c45-ab1c-90cc42a09862, !- Tuesday Schedule:Day Name
  9b5b3100-4b02-47d0-bce3-d94fa52f08f7, !- Wednesday Schedule:Day Name
  ce00610e-a32a-4ece-b26e-120aa42c7228, !- Thursday Schedule:Day Name
  6737b8d2-f567-4d34-99d2-f4ad80a52468, !- Friday Schedule:Day Name
  084ceae8-8b00-4660-976d-57e44b0cd5e7, !- Saturday Schedule:Day Name
  d607d840-65f3-443d-aecd-4b0e159aa238, !- Holiday Schedule:Day Name
  d607d840-65f3-443d-aecd-4b0e159aa238, !- SummerDesignDay Schedule:Day Name
  d607d840-65f3-443d-aecd-4b0e159aa238, !- WinterDesignDay Schedule:Day Name
  d607d840-65f3-443d-aecd-4b0e159aa238, !- CustomDay1 Schedule:Day Name
  d607d840-65f3-443d-aecd-4b0e159aa238; !- CustomDay2 Schedule:Day Name

Schedule:Week:Daily, NatVentAvail_S17_0_48,
  de16a74b-8da1-4d14-a032-3af18f43bd55, !- Sunday Schedule:Day Name
  c3097590-644c-41fd-9569-c0059c91166c, !- Monday Schedule:Day Name
  e30310f3-81ec-459c-9faa-30047b0ae1af, !- Tuesday Schedule:Day Name
  d9ea127a-ea3e-44f9-b4f6-f443588a29fb, !- Wednesday Schedule:Day Name
  a76dce38-3209-42e0-b7ba-c4b8023e9346, !- Thursday Schedule:Day Name
  d887af66-3536-4834-bc5d-0baeb41215c9, !- Friday Schedule:Day Name
  3f709877-ca24-4eac-a6bc-b89a9bb1e5b0, !- Saturday Schedule:Day Name
  de16a74b-8da1-4d14-a032-3af18f43bd55, !- Holiday Schedule:Day Name
  de16a74b-8da1-4d14-a032-3af18f43bd55, !- SummerDesignDay Schedule:Day Name
  de16a74b-8da1-4d14-a032-3af18f43bd55, !- WinterDesignDay Schedule:Day Name
  de16a74b-8da1-4d14-a032-3af18f43bd55, !- CustomDay1 Schedule:Day Name
  de16a74b-8da1-4d14-a032-3af18f43bd55; !- CustomDay2 Schedule:Day Name

Schedule:Week:Daily, NatVentAvail_S17_0_49,
  2a04d83a-0448-47be-a510-ff10fa25223e, !- Sunday Schedule:Day Name
  141a5f00-de8e-43ea-a320-b35ca03feaf6, !- Monday Schedule:Day Name
  1be3a314-f64a-41b9-9b82-cdeb1f3612ab, !- Tuesday Schedule:Day Name
  e8899921-19ed-4b59-abe1-781bdcf05ea4, !- Wednesday Schedule:Day Name
  920b140d-c558-48a4-b198-0b9693440f3c, !- Thursday Schedule:Day Name
  33009ea6-02d0-4185-8cfe-981264cebca3, !- Friday Schedule:Day Name
  4ce3d1fc-0161-40da-9a8b-38a71a0e1ad9, !- Saturday Schedule:Day Name
  2a04d83a-0448-47be-a510-ff10fa25223e, !- Holiday Schedule:Day Name
  2a04d83a-0448-47be-a510-ff10fa25223e, !- SummerDesignDay Schedule:Day Name
  2a04d83a-0448-47be-a510-ff10fa25223e, !- WinterDesignDay Schedule:Day Name
  2a04d83a-0448-47be-a510-ff10fa25223e, !- CustomDay1 Schedule:Day Name
  2a04d83a-0448-47be-a510-ff10fa25223e; !- CustomDay2 Schedule:Day Name

Schedule:Week:Daily, NatVentAvail_S17_0_50,
  c2c7da96-472e-4291-bc3e-9cf49859e87a, !- Sunday Schedule:Day Name
  933d718d-a17e-42a0-a095-e51b434c67a3, !- Monday Schedule:Day Name
  1b73200d-bde2-4e65-af20-2fa226fcb48a, !- Tuesday Schedule:Day Name
  edd05a41-e019-4b9b-b93f-d20d6fc79ab3, !- Wednesday Schedule:Day Name
  ce7753f5-cce8-4b4b-915a-e604bb3164cb, !- Thursday Schedule:Day Name
  59236d2b-73d4-4188-a274-12928467ce5b, !- Friday Schedule:Day Name
  6081d968-d7ff-45b7-be75-8165c582db9b, !- Saturday Schedule:Day Name
  c2c7da96-472e-4291-bc3e-9cf49859e87a, !- Holiday Schedule:Day Name
  c2c7da96-472e-4291-bc3e-9cf49859e87a, !- SummerDesignDay Schedule:Day Name
  c2c7da96-472e-4291-bc3e-9cf49859e87a, !- WinterDesignDay Schedule:Day Name
  c2c7da96-472e-4291-bc3e-9cf49859e87a, !- CustomDay1 Schedule:Day Name
  c2c7da96-472e-4291-bc3e-9cf49859e87a; !- CustomDay2 Schedule:Day Name

Schedule:Week:Daily, NatVentAvail_S17_0_51,
  7c0725e3-9913-4fe2-876b-67c571e020ed, !- Sunday Schedule:Day Name
  1d88526b-adae-4e78-8894-d935f60a73ab, !- Monday Schedule:Day Name
  b2493e04-3c68-4a53-b039-0fe1365f87c3, !- Tuesday Schedule:Day Name
  dbe4a0a7-0a0c-4a06-b6b1-43fffc713dd4, !- Wednesday Schedule:Day Name
  97747ef6-9000-4a3b-9dc8-e5795c20cec8, !- Thursday Schedule:Day Name
  1de4bbb1-2ca0-4796-8eb3-9f55224dc10d, !- Friday Schedule:Day Name
  9202f287-4b87-4056-ab0b-0b81f7d1c492, !- Saturday Schedule:Day Name
  7c0725e3-9913-4fe2-876b-67c571e020ed, !- Holiday Schedule:Day Name
  7c0725e3-9913-4fe2-876b-67c571e020ed, !- SummerDesignDay Schedule:Day Name
  7c0725e3-9913-4fe2-876b-67c571e020ed, !- WinterDesignDay Schedule:Day Name
  7c0725e3-9913-4fe2-876b-67c571e020ed, !- CustomDay1 Schedule:Day Name
  7c0725e3-9913-4fe2-876b-67c571e020ed; !- CustomDay2 Schedule:Day Name

Schedule:Week:Daily, NatVentAvail_S17_0_52,
  5d938de8-fe3e-4f5b-a9df-bb3d1125d439, !- Sunday Schedule:Day Name
  5d938de8-fe3e-4f5b-a9df-bb3d1125d439, !- Monday Schedule:Day Name
  5d938de8-fe3e-4f5b-a9df-bb3d1125d439, !- Tuesday Schedule:Day Name
  5d938de8-fe3e-4f5b-a9df-bb3d1125d439, !- Wednesday Schedule:Day Name
  5d938de8-fe3e-4f5b-a9df-bb3d1125d439, !- Thursday Schedule:Day Name
  5d938de8-fe3e-4f5b-a9df-bb3d1125d439, !- Friday Schedule:Day Name
  5d938de8-fe3e-4f5b-a9df-bb3d1125d439, !- Saturday Schedule:Day Name
  5d938de8-fe3e-4f5b-a9df-bb3d1125d439, !- Holiday Schedule:Day Name
  5d938de8-fe3e-4f5b-a9df-bb3d1125d439, !- SummerDesignDay Schedule:Day Name
  5d938de8-fe3e-4f5b-a9df-bb3d1125d439, !- WinterDesignDay Schedule:Day Name
  5d938de8-fe3e-4f5b-a9df-bb3d1125d439, !- CustomDay1 Schedule:Day Name
  5d938de8-fe3e-4f5b-a9df-bb3d1125d439; !- CustomDay2 Schedule:Day Name




!------------------------------------------------ ZONE ----------------------------------------------------

Zone,
  S17_0,            !- Name
  0,                       !- Rotation [deg]
  0,                       !- X origin [m]
  0,                       !- Y origin [m]
  0,                       !- Z origin [m]
  1,                       !- Type
  1,                       !- Multiplier
  ,                        !- CeilingHeight [m]
  300713,                   !- Volume [m3]
  2261,                   !- Area [m2]
  TARP,                    !- Zone Inside Convection Algorithm
  DOE-2;                   !- Zone Outside Convection Algorithm

! ------------------------ PEOPLE
People,
    People S17_0,   !- Name
    S17_0,  !- Zone or ZoneList Name
    NECB-D-Occupancy,    !- OccupancySchedule
    People/Area,    !- Number of People Calculation Method
    ,   !- Number of People
    0.7,    !- PeopleDensity [person/m2]
    ,   !- Floor Area per Person [m2/person]
    0.3,    !- Fraction Radiant
    AUTOCALCULATE,  !- Sensible Heat Fraction
    S17_0PeopleActivity,    !- Activity Level Schedule Name
    3.82E-08,   !- Carbon Dioxide Generation Rate [m3/s-W]
    No, !- Enable ASHRAE 55 Comfort Warnings
    ZoneAveraged,   !- Mean Radiant Temperature Calculation Type
    ,   !- Surface Name/Angle Factor List Name
    S17_0WorkEfficiency,    !- Work Efficiency Schedule Name
    DynamicClothingModelASHRAE55,   !- Clothing Insulation Calculation Method
    ,   !- Clothing Insulation Calculation Method Schedule Name
    ,   !- Clothing Insulation Schedule Name
    AirSpeed 0,!- Air Velocity Schedule Name
    AdaptiveASH55,               !- Thermal Comfort Model 1 Type
    Pierce,               !- Thermal Comfort Model 2 Type
    Fanger;               !- Thermal Comfort Model 3 Type




    Schedule:Constant,
    S17_0PeopleActivity,
    Any Number,
    125.27999999999999; !- MetabolicRate [met]
    Schedule:Constant,
    S17_0WorkEfficiency,
    Any Number, 
    0;


! ------------------------ EQUIPMENT
ElectricEquipment,
  S17_0 Equipment,!- Name
  S17_0,            !- Zone or ZoneList Name
  NECB-D-Electric-Equipment, !- EquipmentAvailibilitySchedule
  Watts/Area,          !- Design Level Calculation Method
  ,                !- Design Level [W]
  10, !- EquipmentPowerDensity [W/m2]
  ,                        !- Watts per Person [W/person]
  0,                       !- Fraction Latent
  .2,                      !- Fraction Radiant
  0,                       !- Fraction Lost
  ;                        !- End-Use Subcategory

! ------------------------ LIGHTS
Lights,
  S17_0 General lighting,   !- Name
  S17_0,                    !- Zone or ZoneList Name
  NECB-D-Lighting, !- LightsAvailibilitySchedule
  Watts/Area,              !- Design Level Calculation Method
  ,                        !- Lighting Level [W]
  7.642,   !- LightingPowerDensity [W/m2]
  ,                        !- Watts per Person [W/person]
  0,                       !- Return Air Fraction
  .42,                     !- Fraction Radiant
  .18,                     !- Fraction Visible
  1,                       !- Fraction Replaceable
  ;                        !- End-Use Subcategory

! ------------------------ NATVENT


ZoneVentilation:WindandStackOpenArea,
S17_0NatVent_Buoy,          !- Name
S17_0,                  !- Zone Name
7634.200000000008,                       !- Opening Area {m2}
NatVentAvail_S17_0,                !- Opening Area Fraction Schedule Name
0,                     !- Opening Effectiveness {dimensionless}
0,                     !- Effective Angle {deg}
18.299633949172208,                       !- Height Difference {m}
0.6,                       !- Discharge Coefficient for Opening
22,                    !- Minimum Indoor Temperature {C}
,                        !- Minimum Indoor Temperature Schedule Name
100,                     !- Maximum Indoor Temperature {C}
,                        !- Maximum Indoor Temperature Schedule Name
1,                    !- Delta Temperature {deltaC}
,                        !- Delta Temperature Schedule Name
0,                    !- Minimum Outdoor Temperature {C}
,                        !- Minimum Outdoor Temperature Schedule Name
30,                     !- Maximum Outdoor Temperature {C}
,                        !- Maximum Outdoor Temperature Schedule Name
40;                      !- Maximum Wind Speed {m/s}

! ------------------------ INFILTRATION
ZoneInfiltration:DesignFlowRate,
  S17_0Infiltration,  !- Name
  S17_0,            !- Zone or ZoneList Name
  On,                      !- Schedule Name
  Flow/ExteriorArea,               !- Design Flow Rate Calculation Method
  ,                        !- Design Flow Rate [m3/s]
  ,                        !- Flow per Zone Floor Area [m3/s-m2]
  0.0005689597106659634,                        !- Flow per Exterior Surface Area [m3/s-m2]
  , !- @S17_0-InfiltrationAch@ [Air Changes per Hour]
  1, !- @S17_0-InfiltrationConstantCoefficient@ 
  0, !- @S17_0-InfiltrationTemperatureCoefficient@ 
  0, !- @S17_0-InfiltrationWindVelocityCoefficient@  
  0; !- @S17_0-InfiltrationWindVelocitySquaredCoefficient@ 

! ------------------------ GEOMETRY ------------------------

! FACE NORMAL  0.3307207418344679 0.9437286638226368 -0
BuildingSurface:Detailed,!-Type
S17_0:f0, !-Name
Wall,                    !-Surface Type
90.1-2019 Nonresidential CZ 0 Exterior Wall (Mass),                       !-Construction Name
S17_0,            !-Zone Name
,            !-Space Name
Outdoors,                !-Outside Boundary Condition
,                        !-Outside Boundary Condition Object
SunExposed,              !-Sun Exposure
WindExposed,             !-Wind Exposure
Autocalculate,                      !-View Factor to Ground
4,                       !-Number of Vertices

46.3623, 211.1517, -40.7943,  !- X,Y,Z ==> Vertex
30.3189, 216.7739, -40.7943,  !- X,Y,Z ==> Vertex
30.3189, 216.7739, 92.2057,  !- X,Y,Z ==> Vertex
46.3623, 211.1517, 92.2057;  !- X,Y,Z ==> Vertex


FenestrationSurface:Detailed,
S17_0:f0:w0, !-Name
Window,                  !- Surface Type
90.1-2019 Nonresidential CZ 0 Glazing (Operable),   !- @S17_0:f0:w0-Construction@
S17_0:f0, !- Building Surface Name
,                        !- Outside Boundary Condition Object
Autocalculate,                      !- View Factor to Ground
,                       !- Frame and Divider Name
1,                       !- Multiplier
4,                       !-Number of Vertices

41.8008, 212.7502, -35.9608,  !- X,Y,Z ==> Vertex
34.8804, 215.1754, -35.9608,  !- X,Y,Z ==> Vertex
34.8804, 215.1754, 87.3722,  !- X,Y,Z ==> Vertex
41.8008, 212.7502, 87.3722;  !- X,Y,Z ==> Vertex


! FACE NORMAL  0 0 1
BuildingSurface:Detailed,!-Type
S17_0:f1, !-Name
Roof,                    !-Surface Type
90.1-2019 Nonresidential CZ 0 Exterior Roof (Mass),                       !-Construction Name
S17_0,            !-Zone Name
,            !-Space Name
Outdoors,                !-Outside Boundary Condition
,                        !-Outside Boundary Condition Object
SunExposed,              !-Sun Exposure
WindExposed,             !-Wind Exposure
0,                      !-View Factor to Ground
4,                       !-Number of Vertices

30.3189, 216.7739, 92.2057,  !- X,Y,Z ==> Vertex
-13.6669, 91.2580, 92.2057,  !- X,Y,Z ==> Vertex
2.3765, 85.6358, 92.2057,  !- X,Y,Z ==> Vertex
46.3623, 211.1517, 92.2057;  !- X,Y,Z ==> Vertex


! FACE NORMAL  -0.330720741834468 -0.9437286638226368 -0
BuildingSurface:Detailed,!-Type
S17_0:f2, !-Name
Wall,                    !-Surface Type
90.1-2019 Nonresidential CZ 0 Exterior Wall (Mass),                       !-Construction Name
S17_0,            !-Zone Name
,            !-Space Name
Outdoors,                !-Outside Boundary Condition
,                        !-Outside Boundary Condition Object
SunExposed,              !-Sun Exposure
WindExposed,             !-Wind Exposure
Autocalculate,                      !-View Factor to Ground
4,                       !-Number of Vertices

-13.6669, 91.2580, -40.7943,  !- X,Y,Z ==> Vertex
2.3765, 85.6358, -40.7943,  !- X,Y,Z ==> Vertex
2.3765, 85.6358, 92.2057,  !- X,Y,Z ==> Vertex
-13.6669, 91.2580, 92.2057;  !- X,Y,Z ==> Vertex


FenestrationSurface:Detailed,
S17_0:f2:w0, !-Name
Window,                  !- Surface Type
90.1-2019 Nonresidential CZ 0 Glazing (Operable),   !- @S17_0:f2:w0-Construction@
S17_0:f2, !- Building Surface Name
,                        !- Outside Boundary Condition Object
Autocalculate,                      !- View Factor to Ground
,                       !- Frame and Divider Name
1,                       !- Multiplier
4,                       !-Number of Vertices

-8.2778, 89.3695, -35.0839,  !- X,Y,Z ==> Vertex
-3.0127, 87.5243, -35.0839,  !- X,Y,Z ==> Vertex
-3.0127, 87.5243, 86.4952,  !- X,Y,Z ==> Vertex
-8.2778, 89.3695, 86.4952;  !- X,Y,Z ==> Vertex


! FACE NORMAL  1.766851283275735E-17 5.0418011023139876E-17 -1

Construction:FfactorGroundFloor,
S17_0:f3UnderGroundSlabCF,
0.73, !F-factor in W/m-K
2261, !Area in m2
299.99999999999994; !Exposed perimeter in m
BuildingSurface:Detailed,!-Type
S17_0:f3, !-Name
Floor,                    !-Surface Type
S17_0:f3UnderGroundSlabCF,                       !-Construction Name
S17_0,            !-Zone Name
,            !-Space Name
GroundFCfactorMethod,                !-Outside Boundary Condition
,                        !-Outside Boundary Condition Object
NoSun,              !-Sun Exposure
NoWind,             !-Wind Exposure
Autocalculate,                      !-View Factor to Ground
4,                       !-Number of Vertices

-13.6669, 91.2580, -40.7943,  !- X,Y,Z ==> Vertex
30.3189, 216.7739, -40.7943,  !- X,Y,Z ==> Vertex
46.3623, 211.1517, -40.7943,  !- X,Y,Z ==> Vertex
2.3765, 85.6358, -40.7943;  !- X,Y,Z ==> Vertex


! FACE NORMAL  -0.9437286638226365 0.3307207418344681 1.232595164407831E-32
BuildingSurface:Detailed,!-Type
S17_0:f4, !-Name
Wall,                    !-Surface Type
90.1-2019 Nonresidential CZ 0 Exterior Wall (Mass),                       !-Construction Name
S17_0,            !-Zone Name
,            !-Space Name
Outdoors,                !-Outside Boundary Condition
,                        !-Outside Boundary Condition Object
SunExposed,              !-Sun Exposure
WindExposed,             !-Wind Exposure
Autocalculate,                      !-View Factor to Ground
4,                       !-Number of Vertices

30.3189, 216.7739, -40.7943,  !- X,Y,Z ==> Vertex
-13.6669, 91.2580, -40.7943,  !- X,Y,Z ==> Vertex
-13.6669, 91.2580, 92.2057,  !- X,Y,Z ==> Vertex
30.3189, 216.7739, 92.2057;  !- X,Y,Z ==> Vertex


FenestrationSurface:Detailed,
S17_0:f4:w0, !-Name
Window,                  !- Surface Type
90.1-2019 Nonresidential CZ 0 Glazing (Operable),   !- @S17_0:f4:w0-Construction@
S17_0:f4, !- Building Surface Name
,                        !- Outside Boundary Condition Object
Autocalculate,                      !- View Factor to Ground
,                       !- Frame and Divider Name
1,                       !- Multiplier
4,                       !-Number of Vertices

18.1615, 182.0822, -4.0340,  !- X,Y,Z ==> Vertex
-1.5095, 125.9498, -4.0340,  !- X,Y,Z ==> Vertex
-1.5095, 125.9498, 55.4454,  !- X,Y,Z ==> Vertex
18.1615, 182.0822, 55.4454;  !- X,Y,Z ==> Vertex


! FACE NORMAL  0.9437286638226365 -0.3307207418344681 -1.232595164407831E-32
BuildingSurface:Detailed,!-Type
S17_0:f5, !-Name
Wall,                    !-Surface Type
90.1-2019 Nonresidential CZ 0 Exterior Wall (Mass),                       !-Construction Name
S17_0,            !-Zone Name
,            !-Space Name
Outdoors,                !-Outside Boundary Condition
,                        !-Outside Boundary Condition Object
SunExposed,              !-Sun Exposure
WindExposed,             !-Wind Exposure
Autocalculate,                      !-View Factor to Ground
4,                       !-Number of Vertices

2.3765, 85.6358, -40.7943,  !- X,Y,Z ==> Vertex
46.3623, 211.1517, -40.7943,  !- X,Y,Z ==> Vertex
46.3623, 211.1517, 92.2057,  !- X,Y,Z ==> Vertex
2.3765, 85.6358, 92.2057;  !- X,Y,Z ==> Vertex


FenestrationSurface:Detailed,
S17_0:f5:w0, !-Name
Window,                  !- Surface Type
90.1-2019 Nonresidential CZ 0 Glazing (Operable),   !- @S17_0:f5:w0-Construction@
S17_0:f5, !- Building Surface Name
,                        !- Outside Boundary Condition Object
Autocalculate,                      !- View Factor to Ground
,                       !- Frame and Divider Name
1,                       !- Multiplier
4,                       !-Number of Vertices

13.3729, 117.0147, -7.5443,  !- X,Y,Z ==> Vertex
35.3658, 179.7727, -7.5443,  !- X,Y,Z ==> Vertex
35.3658, 179.7727, 58.9557,  !- X,Y,Z ==> Vertex
13.3729, 117.0147, 58.9557;  !- X,Y,Z ==> Vertex



!------------------------Ideal Loads System S17_0------------------------

ZoneHVAC:EquipmentConnections,
  S17_0,            !- Zone Name
  S17_0 Equipment,  !- Zone Conditioning Equipment List Name
  S17_0 Inlets,     !- Zone Air Inlet Node or NodeList Name
  ,                         !- Zone Air Exhaust Node or NodeList Name
  Node S17_0 Zone,  !- Zone Air Node Name
  Node S17_0 Out;   !- Zone Return Air Node Name

ZoneHVAC:EquipmentList,
  S17_0 Equipment,       !- Name
  UniformLoad,                   !- Load Distribution Scheme
  ZoneHVAC:IdealLoadsAirSystem,  !- Zone Equipment 1 Object Type
  S17_0 Ideal Loads Air, !- Zone Equipment 1 Name
  1,                             !- Zone Equipment 1 Cooling Sequence
  1;                             !- Zone Equipment 1 Heating or No-Load Sequence

NodeList,
  S17_0 Inlets,     !- Name
  Node S17_0 In;    !- Node 1 Name

ZoneHVAC:IdealLoadsAirSystem,
  S17_0 Ideal Loads Air,  !- Name
  ,                        !- Availability Schedule Name
  Node S17_0 In,   !- Zone Supply Air Node Name
  ,                        !- Zone Exhaust Air Node Name
  ,                        !- System Inlet Air Node Name
  35,                      !- Maximum Heating Supply Air Temperature {C}
  12,                      !- Minimum Cooling Supply Air Temperature {C}
  0.01,                    !- Maximum Heating Supply Air Humidity Ratio {kgWater/kgDryAir}
  0.008,                   !- Minimum Cooling Supply Air Humidity Ratio {kgWater/kgDryAir}
  LimitFlowRateAndCapacity,                 !- Heating Limit
  Autosize, !- MaximumHeatingAirFlowRate [m3/s]
  Autosize, !- MaximumSensibleHeatingCapacity [W]
  LimitFlowRateAndCapacity,                 !- Cooling Limit
  Autosize , !- MaximumCoolingAirFlowRate [m3/s]
  Autosize, !- MaximumTotalCoolingCapacity [W]
  Off, !- HeatingAvailabilitySchedule
  CoolAvail_S17_0, !- CoolingAvailabilitySchedule
  Humidistat,                    !- Dehumidification Control Type
  ,                        !- Cooling Sensible Heat Ratio {dimensionless}
  Humidistat,                    !- Humidification Control Type
  S17_0MinFreshAir,                        !- Design Specification Outdoor Air Object Name
  S17_0OutdoorInlet,                        !- Outdoor Air Inlet Node Name
  OccupancySchedule,                        !- Demand Controlled Ventilation Type
  NoEconomizer,                        !- Outdoor Air Economizer Type
  None,                        !- Heat Recovery Type
  0.7, !-  SensibleHeatRecoveryEffectiveness
  0.65; !-  LatentHeatRecoveryEffectiveness




Sizing:Zone,
  S17_0,                   !- Zone or ZoneList Name
  SupplyAirTemperature,    !- Zone Cooling Design Supply Air Temperature Input Method
  12,                      !- Zone Cooling Design Supply Air Temperature {C}
  ,                        !- Zone Cooling Design Supply Air Temperature Difference {deltaC}
  SupplyAirTemperature,    !- Zone Heating Design Supply Air Temperature Input Method
  35,                 !- Zone Heating Design Supply Air Temperature {C}
  ,                        !- Zone Heating Design Supply Air Temperature Difference {deltaC}
  0.009,                   !- Zone Cooling Design Supply Air Humidity Ratio {kgWater/kgDryAir}
  0.004,                   !- Zone Heating Design Supply Air Humidity Ratio {kgWater/kgDryAir}
  S17_0MinFreshAir,        !- Design Specification Outdoor Air Object Name
  1.15,                   !- Zone Heating Sizing Factor
  1.15,                   !- Zone Cooling Sizing Factor
  DesignDay,               !- Cooling Design Air Flow Method
  ,                        !- Cooling Design Air Flow Rate {m3/s}
  ,                        !- Cooling Minimum Air Flow per Zone Floor Area {m3/s-m2}
  ,                        !- Cooling Minimum Air Flow {m3/s}
  ,                        !- Cooling Minimum Air Flow Fraction
  DesignDay,               !- Heating Design Air Flow Method
  ,                        !- Heating Design Air Flow Rate {m3/s}
  ,                        !- Heating Maximum Air Flow per Zone Floor Area {m3/s-m2}
  ,                        !- Heating Maximum Air Flow {m3/s}
  ,                        !- Heating Maximum Air Flow Fraction
  ,                        !- Design Specification Zone Air Distribution Object Name
  ,                        !- Account for Dedicated Outdoor Air System
  ,                        !- Dedicated Outdoor Air System Control Strategy
  ,                        !- Dedicated Outdoor Air Low Setpoint Temperature for Design {C}
  ;                        !- Dedicated Outdoor Air High Setpoint Temperature for Design {C}


!------------------------ Thermostat S17_0------------------------

Schedule:Constant,
  S17_0Heating_SP_Sch, !- Name
  Temperature, !- Schedule Type Limits Name
  20; !- HeatingSetpoint

Schedule:Constant,
  S17_0Cooling_SP_Sch, !- Name
  Temperature, !- Schedule Type Limits Name
  26; !- CoolingSetpoint


ZoneControl:Thermostat,
  S17_0 Thermostat, !- Name
  S17_0,            !- Zone or ZoneList Name
  S17_0_ZoneControlTypeSched, !- Control Type Schedule Name
  ThermostatSetpoint:DualSetpoint,  !- Control 1 Object Type
  Dual Setpoint - Zone S17_0;  !- Control 1 Name

Schedule:Constant,
  S17_0_ZoneControlTypeSched, !- Name
  Any Number, !- Schedule Type Limits Name
  4; !- Hourly Value

ThermostatSetpoint:DualSetpoint,
  Dual Setpoint - Zone S17_0,  !- Name
  NECB-D-Thermostat Setpoint-Heating,  !- Heating Setpoint Temperature Schedule Name
  NECB-D-Thermostat Setpoint-Cooling;  !- Cooling Setpoint Temperature Schedule Name


!------------------------ Humidistat S17_0------------------------

ZoneControl:Humidistat,
    S17_0Humidistat,                  !-Name
    S17_0,                   !-Zone Name
    S17_0HumidMin,                !-Humidifying Relative Humidity Setpoint Schedule Name
    S17_0HumidMax; !-Dehumidifying Relative Humidity Setpoint Schedule Name

Schedule:Constant,
    S17_0HumidMin,                !- Name
    Any Number,              !- Schedule Type Limits Name
    20; !- MinHumidity

Schedule:Constant,
    S17_0HumidMax,                !- Name
    Any Number,              !- Schedule Type Limits Name
    80; !- MaxHumidity


!------------------------ OutdoorAir S17_0------------------------

DesignSpecification:OutdoorAir,
  S17_0MinFreshAir,                  !- Name
  Sum,                     !- Outdoor Air Method
  0.001, !- @S17_0-MinFreshAirPerson@ [m3/s-person]
  0.01, !- @S17_0-MinFreshAirArea@ [m3/s-m2]
    ,                        !- Outdoor Air Flow per Zone [m3/s]
    ,                        !- Outdoor Air Flow Air Changes per Hour [1/hr]
    AllOn; !- MechVentSchedule



! ------------------------ Fan EMS Objects




! ------------------------ OUTPUTS

Output:Meter:MeterFileOnly,Cooling:Electricity,Hourly;
Output:Meter:MeterFileOnly,Heating:Electricity,Hourly;
Output:Meter:MeterFileOnly,Heating:NaturalGas,Hourly;
Output:Meter:MeterFileOnly,Heating:FuelOilNo1,Hourly;
Output:Meter:MeterFileOnly,Heating:FuelOilNo2,Hourly;
Output:Meter:MeterFileOnly,Heating:Coal,Hourly;
Output:Meter:MeterFileOnly,Heating:Gasoline,Hourly;
Output:Meter:MeterFileOnly,Heating:Propane,Hourly;
Output:Meter:MeterFileOnly,Heating:Diesel,Hourly;
Output:Meter:MeterFileOnly,Heating:OtherFuel1,Hourly;
Output:Meter:MeterFileOnly,Heating:OtherFuel2,Hourly;
Output:Meter:MeterFileOnly,Fans:Electricity,Hourly;
Output:Meter:MeterFileOnly,Pumps:Electricity,Hourly;
Output:Meter:MeterFileOnly,Humidifier:Electricity,Hourly;
Output:Meter:MeterFileOnly,HeatRejection:Electricity,Hourly;
Output:Meter:MeterFileOnly,Heating:EnergyTransfer:Zone:*,Hourly;
Output:Meter:MeterFileOnly,Cooling:EnergyTransfer:Zone:*,Hourly;
Output:Variable,*,Zone People Total Heating Energy,Hourly;
Output:Variable,*,Zone Lights Electricity Energy,Hourly;
Output:Variable,*,Electric Equipment Electricity Energy,Hourly;
Output:Variable,*,Zone Windows Total Transmitted Solar Radiation Energy,Hourly;
Output:Variable,*,Zone Windows Total Heat Gain Energy,Hourly;
Output:Variable,*,Zone Windows Total Heat Loss Energy,Hourly;
Output:Variable,*,Zone Opaque Surface Inside Faces Total Conduction Heat Gain Energy,Hourly;
Output:Variable,*,Zone Opaque Surface Inside Faces Total Conduction Heat Loss Energy,Hourly;
Output:Variable,*,Zone Mean Radiant Temperature,Hourly;
Output:Variable,*,Zone Mean Air Temperature,Hourly;
Output:Variable,*,Zone Operative Temperature,Hourly;
Output:Variable,*,Zone Infiltration Total Heat Loss Energy,Hourly;
Output:Variable,*,Zone Infiltration Total Heat Gain Energy,Hourly;
Output:Variable,*,Zone Ventilation Total Heat Loss Energy,Hourly;
Output:Variable,*,Zone Ventilation Total Heat Gain Energy,Hourly;
Output:Variable,*,Zone Air Relative Humidity,Hourly;
Output:Variable,*,Zone Ideal Loads Supply Air Total Heating Energy,Hourly;
Output:Variable,*,Zone Ideal Loads Supply Air Total Cooling Energy,Hourly;
Output:Variable,*,Zone Ideal Loads Zone Total Heating Energy,Hourly;
Output:Variable,*,Zone Ideal Loads Zone Total Cooling Energy,Hourly;
Output:Variable,*,Zone Ideal Loads Outdoor Air Total Heating Energy,Hourly;
Output:Variable,*,Zone Ideal Loads Outdoor Air Total Cooling Energy,Hourly;
Output:Variable,*,Zone Ideal Loads Heat Recovery Total Heating Energy,Hourly;
Output:Variable,*,Zone Ideal Loads Heat Recovery Total Cooling Energy,Hourly;
Output:Variable,*,Water Use Equipment Heating Energy,Hourly;


Output:VariableDictionary, IDF;
Output:Surfaces:Drawing,DXF,Triangulate3DFace;
Output:Surfaces:List,Details;
!Output:Constructions,Constructions;
!Output:Diagnostics,DisplayExtraWarnings;
!Output:Diagnostics,DisplayUnusedSchedules;
!Output:Diagnostics,DisplayUnusedObjects;
Output:Diagnostics,DisplayAdvancedReportVariables;

Output:Table:SummaryReports,
    EnvelopeSummary,         !- Report 
    AnnualBuildingUtilityPerformanceSummary, !- Report 
    InputVerificationandResultsSummary,  !- Report 
    SourceEnergyEndUseComponentsSummary, !- Report 
    ShadingSummary,!- Report 
    ThermalResilienceSummary;          !- Report 


