! ----  This file was generated with Climate Studio 2.3.9530.31237

Version,23.1;

Site:GroundTemperature:BuildingSurface,18,18,18,18,18,18,18,18,18,18,18,18;

Site:GroundReflectance,0.2,0.2,0.2,0.2,0.2,0.2,0.2,0.2,0.2,0.2,0.2,0.2;

Site:GroundReflectance:SnowModifier,
  1.0,                     !- Ground Reflected Solar Modifier
  1.0;                     !- Daylighting Ground Reflected Solar Modifier


Site:WeatherStation, 
10, !- Wind Sensor Height Above Ground {m} 
0.22, !- Wind Speed Profile Exponent {} 
370, !- Wind Speed Profile Boundary Layer Thickness {m} 
1.5; !- Air Temperature Sensor Height Above Ground {m}


ZoneAirContaminantBalance,
  Yes,                       !- Carbon Dioxide Concentration
  GlobalCO2,      !- Outdoor Carbon Dioxide Schedule Name
  No,                       !- Generic Contaminant Concentration
  Off; !- Outdoor Generic Contaminant Schedule Name


!-   ===========  ALL OBJECTS IN CLASS: RUNPERIOD ===========

RunPeriod,
  Climate Studio,                 !- Name
  1,                       !- Begin Month
  1,                       !- Begin Day of Month
  , !- Begin Year
  12,                      !- End Month
  31,                      !- End Day of Month
  , !- End Year
  Sunday,          !- Day of Week for Start Day
  No,                     !- Use Weather File Holidays and Special Days
  No,                     !- Use Weather File Daylight Saving Period
  No,                      !- Apply Weekend Holiday Rule
  Yes,                     !- Use Weather File Rain Indicators
  Yes,                     !- Use Weather File Snow Indicators
  No;                      !- Treat Weather as Actual

RunPeriodControl:DaylightSavingTime,2nd Sunday in March, 1st Sunday in November; !2007


!-   ===========  ALL OBJECTS IN CLASS: SIMULATIONCONTROL ===========

SimulationControl,
Yes, !- Do Zone Sizing Calculation
Yes, !- Do System Sizing Calculation
Yes, !- Do Plant Sizing Calculation
No, !- Run Simulation for Sizing Periods
Yes, !- Run Simulation for Weather File Run Periods
No, !- Do HVAC Sizing Simulation for Sizing Periods
2; !- Maximum Number of HVAC Sizing Simulation Passes


!-   ===========  ALL OBJECTS IN CLASS: CONVERGENCELIMITS ===========

ConvergenceLimits,
0, !- Minimum System Timestep (0 = same as zone timestep)
100, !- Maximum HVAC Iterations
3, !- Minimum Plant Iterations
10; !- Maximum Plant Iterations


!-   ===========  ALL OBJECTS IN CLASS: SCHEDULETYPELIMITS ===========

ScheduleTypeLimits,
  Any Number;              !- Name

ScheduleTypeLimits,
  Fraction,                !- Name
  0.0,                     !- Lower Limit Value {A3}
  1.0,                     !- Upper Limit Value {A3}
  CONTINUOUS;              !- Numeric Type

ScheduleTypeLimits,
  Temperature,             !- Name
  -60,                     !- Lower Limit Value
  200,                     !- Upper Limit Value
  CONTINUOUS;              !- Numeric Type

ScheduleTypeLimits,
  AnyNumber,               !- Name
  -1E11,                   !- Lower Limit Value
  1E11,                    !- Upper Limit Value
  CONTINUOUS;              !- Numeric Type

ScheduleTypeLimits,
  Control Type,            !- Name
  0,                       !- Lower Limit Value
  4,                       !- Upper Limit Value
  DISCRETE;                !- Numeric Type

ScheduleTypeLimits,
  On/Off,                  !- Name
  0,                       !- Lower Limit Value
  1,                       !- Upper Limit Value
  DISCRETE;                !- Numeric Type

Schedule:Constant,
  On,                      !- Name
  On/Off,                  !- Schedule Type Limits Name
  1;                       !- Value

Schedule:Constant,
  Off,                     !- Name
  On/Off,                  !- Schedule Type Limits Name
  0;                       !- Value


! -------------------------ERL SENSORS--------------------------

EnergyManagementSystem:Sensor,                                             
  OutdoorTemp, !- Name                                         
  Environment, !- Output:Variable Index Key Name               
  Site Outdoor Air Drybulb Temperature; !- Output:Variable Name

EnergyManagementSystem:Sensor,                                             
  OutdoorRelHumid, !- Name                                         
  Environment, !- Output:Variable Index Key Name               
  Site Outdoor Air Relative Humidity; !- Output:Variable Name

Output:EnergyManagementSystem,
  Verbose,                 !- Actuator Availability Dictionary Reporting
  Verbose,                 !- Internal Variable Availability Dictionary Reporting
  Verbose;                 !- EMS Runtime Language Debug Output Level

! Output:SQLite, Simple;



SizingPeriod:WeatherFileConditionType ,
    Extreme Summer Weather Period for Design, !- Name
    SummerExtreme , !- Period Selection
    SummerDesignDay , !- Day Type
    No, !- Use Weather File Daylight Saving Period
    No; !- Use Weather File Rain and Snow Indicators

SizingPeriod:WeatherFileConditionType ,
    Extreme Winter Weather Period for Design, !- Name
    WinterExtreme , !- Period Selection
    WinterDesignDay , !- Day Type
    No, !- Use Weather File Daylight Saving Period
    No; !- Use Weather File Rain and Snow Indicators

Sizing:Parameters,
    1.5,                     !- Heating Sizing Factor
    1.5;                     !- Cooling Sizing Factor




GlobalGeometryRules,
  LowerLeftCorner,         !- Starting Vertex Position
  CounterClockWise,        !- Vertex Entry Direction
  Relative;                !- Coordinate System

ShadowCalculation,
    PixelCounting,           !- Shading Calculation Method
    Periodic,                !- Shading Calculation Update Frequency Method
    20,                      !- Shading Calculation Update Frequency
    15000,                   !- Maximum Figures in Shadow Overlap Calculations
    ,                        !- Polygon Clipping Algorithm
    512,                     !- Pixel Counting Resolution
    SimpleSkyDiffuseModeling,  !- Sky Diffuse Modeling Algorithm
    Yes,                     !- Output External Shading Calculation Results
    No,                      !- Disable Self-Shading Within Shading Zone Groups
    No;                      !- Disable Self-Shading From Shading Zone Groups to Other Zones

Building,
    Building,                !- Name
    0,        !- North Axis {deg}
    Suburbs,       !- Terrain
    0.04,                    !- Loads Convergence Tolerance Value
    0.25,                     !- Temperature Convergence Tolerance Value {deltaC}
    FullExterior,            !- Solar Distribution
    30,                      !- Maximum Number of Warmup Days
    7;                       !- Minimum Number of Warmup Days



!-   ===========  ALL OBJECTS IN CLASS: HEATBALANCEALGORITHM ===========

HeatBalanceAlgorithm,
    ConductionTransferFunction,  !- Algorithm
    200,                     !- Surface Temperature Upper Limit {C}
    0.1,                     !- Minimum Surface Convection Heat Transfer Coefficient Value {W/m2-K}
    1000;                    !- Maximum Surface Convection Heat Transfer Coefficient Value {W/m2-K}

Timestep,6;

SurfaceConvectionAlgorithm:Inside,TARP;

SurfaceConvectionAlgorithm:Outside,DOE-2;

! ------------ CONSTRUCTIONS 

! defaultConstruction Type: Facade
Construction, defaultConstruction,
defaultMat_0.25_defaultConstruction;

Construction, defaultConstruction_FLIPPED,
defaultMat_0.25_defaultConstruction;



! Materials
!- Material: defaultMat Type: Concrete
Material, defaultMat_0.25_defaultConstruction ,                !- Material name 
 Rough,                                         !- Roughness
 0.25,   !- @defaultConstruction:defaultMat-Thickness@ [m]
 2.3,   !- @defaultConstruction:defaultMat-Conductivity@ [W/m-K]
 2400,   !- @defaultConstruction:defaultMat-Density@ [kg/m3]
 840,   !- @defaultConstruction:defaultMat-SpecificHeat@ [J/kg-K]
 0.9,   !- @defaultConstruction:defaultMat-ThermalEmittance@
 0.7,   !- @defaultConstruction:defaultMat-SolarAbsorptance@
 0.7;   !- @defaultConstruction:defaultMat-VisibleAbsorptance@



! 90.1-2019 Nonresidential CZ 0 Exterior Wall (Mass) Type: Facade
Construction, 90.1-2019 Nonresidential CZ 0 Exterior Wall (Mass),
Stucco_0.025_90.1-2019 Nonresidential CZ 0 Exterior Wall (Mass),
Concrete_0.203_90.1-2019 Nonresidential CZ 0 Exterior Wall (Mass),
Mineral Wool_0.006340168156952033_90.1-2019 Nonresidential CZ 0 Exterior Wall (Mass),
Plaster_0.013_90.1-2019 Nonresidential CZ 0 Exterior Wall (Mass);

Construction, 90.1-2019 Nonresidential CZ 0 Exterior Wall (Mass)_FLIPPED,
Plaster_0.013_90.1-2019 Nonresidential CZ 0 Exterior Wall (Mass),
Mineral Wool_0.006340168156952033_90.1-2019 Nonresidential CZ 0 Exterior Wall (Mass),
Concrete_0.203_90.1-2019 Nonresidential CZ 0 Exterior Wall (Mass),
Stucco_0.025_90.1-2019 Nonresidential CZ 0 Exterior Wall (Mass);



! Materials
!- Material: Stucco Type: Plaster
Material, Stucco_0.025_90.1-2019 Nonresidential CZ 0 Exterior Wall (Mass) ,                !- Material name 
 Smooth,                                         !- Roughness
 0.025,   !- @90.1-2019 Nonresidential CZ 0 Exterior Wall (Mass):Stucco-Thickness@ [m]
 0.72,   !- @90.1-2019 Nonresidential CZ 0 Exterior Wall (Mass):Stucco-Conductivity@ [W/m-K]
 1856,   !- @90.1-2019 Nonresidential CZ 0 Exterior Wall (Mass):Stucco-Density@ [kg/m3]
 840,   !- @90.1-2019 Nonresidential CZ 0 Exterior Wall (Mass):Stucco-SpecificHeat@ [J/kg-K]
 0.9,   !- @90.1-2019 Nonresidential CZ 0 Exterior Wall (Mass):Stucco-ThermalEmittance@
 0.7,   !- @90.1-2019 Nonresidential CZ 0 Exterior Wall (Mass):Stucco-SolarAbsorptance@
 0.7;   !- @90.1-2019 Nonresidential CZ 0 Exterior Wall (Mass):Stucco-VisibleAbsorptance@

!- Material: Concrete Type: Concrete
Material, Concrete_0.203_90.1-2019 Nonresidential CZ 0 Exterior Wall (Mass) ,                !- Material name 
 Rough,                                         !- Roughness
 0.203,   !- @90.1-2019 Nonresidential CZ 0 Exterior Wall (Mass):Concrete-Thickness@ [m]
 2,   !- @90.1-2019 Nonresidential CZ 0 Exterior Wall (Mass):Concrete-Conductivity@ [W/m-K]
 2400,   !- @90.1-2019 Nonresidential CZ 0 Exterior Wall (Mass):Concrete-Density@ [kg/m3]
 950,   !- @90.1-2019 Nonresidential CZ 0 Exterior Wall (Mass):Concrete-SpecificHeat@ [J/kg-K]
 0.9,   !- @90.1-2019 Nonresidential CZ 0 Exterior Wall (Mass):Concrete-ThermalEmittance@
 0.7,   !- @90.1-2019 Nonresidential CZ 0 Exterior Wall (Mass):Concrete-SolarAbsorptance@
 0.7;   !- @90.1-2019 Nonresidential CZ 0 Exterior Wall (Mass):Concrete-VisibleAbsorptance@

!- Material: Mineral Wool Type: Insulation
Material, Mineral Wool_0.006340168156952033_90.1-2019 Nonresidential CZ 0 Exterior Wall (Mass) ,                !- Material name 
 Rough,                                         !- Roughness
 0.006340168156952033,   !- @90.1-2019 Nonresidential CZ 0 Exterior Wall (Mass):Mineral Wool-Thickness@ [m]
 0.041,   !- @90.1-2019 Nonresidential CZ 0 Exterior Wall (Mass):Mineral Wool-Conductivity@ [W/m-K]
 155,   !- @90.1-2019 Nonresidential CZ 0 Exterior Wall (Mass):Mineral Wool-Density@ [kg/m3]
 1130,   !- @90.1-2019 Nonresidential CZ 0 Exterior Wall (Mass):Mineral Wool-SpecificHeat@ [J/kg-K]
 0.9,   !- @90.1-2019 Nonresidential CZ 0 Exterior Wall (Mass):Mineral Wool-ThermalEmittance@
 0.7,   !- @90.1-2019 Nonresidential CZ 0 Exterior Wall (Mass):Mineral Wool-SolarAbsorptance@
 0.7;   !- @90.1-2019 Nonresidential CZ 0 Exterior Wall (Mass):Mineral Wool-VisibleAbsorptance@

!- Material: Plaster Type: Screed
Material, Plaster_0.013_90.1-2019 Nonresidential CZ 0 Exterior Wall (Mass) ,                !- Material name 
 Rough,                                         !- Roughness
 0.013,   !- @90.1-2019 Nonresidential CZ 0 Exterior Wall (Mass):Plaster-Thickness@ [m]
 1,   !- @90.1-2019 Nonresidential CZ 0 Exterior Wall (Mass):Plaster-Conductivity@ [W/m-K]
 2000,   !- @90.1-2019 Nonresidential CZ 0 Exterior Wall (Mass):Plaster-Density@ [kg/m3]
 1130,   !- @90.1-2019 Nonresidential CZ 0 Exterior Wall (Mass):Plaster-SpecificHeat@ [J/kg-K]
 0.9,   !- @90.1-2019 Nonresidential CZ 0 Exterior Wall (Mass):Plaster-ThermalEmittance@
 0.7,   !- @90.1-2019 Nonresidential CZ 0 Exterior Wall (Mass):Plaster-SolarAbsorptance@
 0.7;   !- @90.1-2019 Nonresidential CZ 0 Exterior Wall (Mass):Plaster-VisibleAbsorptance@



! 90.1-2019 Nonresidential CZ 0 Ground Slab (Mass) Type: GroundFloor
Construction, 90.1-2019 Nonresidential CZ 0 Ground Slab (Mass),
XPS Board_0.018543333333333335_90.1-2019 Nonresidential CZ 0 Ground Slab (Mass),
Concrete_0.203_90.1-2019 Nonresidential CZ 0 Ground Slab (Mass),
Carpet_0.02_90.1-2019 Nonresidential CZ 0 Ground Slab (Mass);

Construction, 90.1-2019 Nonresidential CZ 0 Ground Slab (Mass)_FLIPPED,
Carpet_0.02_90.1-2019 Nonresidential CZ 0 Ground Slab (Mass),
Concrete_0.203_90.1-2019 Nonresidential CZ 0 Ground Slab (Mass),
XPS Board_0.018543333333333335_90.1-2019 Nonresidential CZ 0 Ground Slab (Mass);



! Materials
!- Material: XPS Board Type: Insulation
Material, XPS Board_0.018543333333333335_90.1-2019 Nonresidential CZ 0 Ground Slab (Mass) ,                !- Material name 
 Rough,                                         !- Roughness
 0.018543333333333335,   !- @90.1-2019 Nonresidential CZ 0 Ground Slab (Mass):XPS Board-Thickness@ [m]
 0.034,   !- @90.1-2019 Nonresidential CZ 0 Ground Slab (Mass):XPS Board-Conductivity@ [W/m-K]
 35,   !- @90.1-2019 Nonresidential CZ 0 Ground Slab (Mass):XPS Board-Density@ [kg/m3]
 1400,   !- @90.1-2019 Nonresidential CZ 0 Ground Slab (Mass):XPS Board-SpecificHeat@ [J/kg-K]
 0.9,   !- @90.1-2019 Nonresidential CZ 0 Ground Slab (Mass):XPS Board-ThermalEmittance@
 0.7,   !- @90.1-2019 Nonresidential CZ 0 Ground Slab (Mass):XPS Board-SolarAbsorptance@
 0.7;   !- @90.1-2019 Nonresidential CZ 0 Ground Slab (Mass):XPS Board-VisibleAbsorptance@

!- Material: Concrete Type: Concrete
Material, Concrete_0.203_90.1-2019 Nonresidential CZ 0 Ground Slab (Mass) ,                !- Material name 
 Rough,                                         !- Roughness
 0.203,   !- @90.1-2019 Nonresidential CZ 0 Ground Slab (Mass):Concrete-Thickness@ [m]
 2,   !- @90.1-2019 Nonresidential CZ 0 Ground Slab (Mass):Concrete-Conductivity@ [W/m-K]
 2400,   !- @90.1-2019 Nonresidential CZ 0 Ground Slab (Mass):Concrete-Density@ [kg/m3]
 950,   !- @90.1-2019 Nonresidential CZ 0 Ground Slab (Mass):Concrete-SpecificHeat@ [J/kg-K]
 0.9,   !- @90.1-2019 Nonresidential CZ 0 Ground Slab (Mass):Concrete-ThermalEmittance@
 0.7,   !- @90.1-2019 Nonresidential CZ 0 Ground Slab (Mass):Concrete-SolarAbsorptance@
 0.7;   !- @90.1-2019 Nonresidential CZ 0 Ground Slab (Mass):Concrete-VisibleAbsorptance@

!- Material: Carpet Type: Finishes
Material, Carpet_0.02_90.1-2019 Nonresidential CZ 0 Ground Slab (Mass) ,                !- Material name 
 MediumRough,                                         !- Roughness
 0.02,   !- @90.1-2019 Nonresidential CZ 0 Ground Slab (Mass):Carpet-Thickness@ [m]
 0.06,   !- @90.1-2019 Nonresidential CZ 0 Ground Slab (Mass):Carpet-Conductivity@ [W/m-K]
 288,   !- @90.1-2019 Nonresidential CZ 0 Ground Slab (Mass):Carpet-Density@ [kg/m3]
 1380,   !- @90.1-2019 Nonresidential CZ 0 Ground Slab (Mass):Carpet-SpecificHeat@ [J/kg-K]
 0.9,   !- @90.1-2019 Nonresidential CZ 0 Ground Slab (Mass):Carpet-ThermalEmittance@
 0.7,   !- @90.1-2019 Nonresidential CZ 0 Ground Slab (Mass):Carpet-SolarAbsorptance@
 0.7;   !- @90.1-2019 Nonresidential CZ 0 Ground Slab (Mass):Carpet-VisibleAbsorptance@



! 90.1-2019 Nonresidential CZ 0 Exterior Roof (Mass) Type: Roof
Construction, 90.1-2019 Nonresidential CZ 0 Exterior Roof (Mass),
Vaporpermeable Felt_0.003_90.1-2019 Nonresidential CZ 0 Exterior Roof (Mass),
XPS Board_0.14713995500631277_90.1-2019 Nonresidential CZ 0 Exterior Roof (Mass),
Concrete_0.203_90.1-2019 Nonresidential CZ 0 Exterior Roof (Mass),
Acoustic Tile_0.005_90.1-2019 Nonresidential CZ 0 Exterior Roof (Mass);

Construction, 90.1-2019 Nonresidential CZ 0 Exterior Roof (Mass)_FLIPPED,
Acoustic Tile_0.005_90.1-2019 Nonresidential CZ 0 Exterior Roof (Mass),
Concrete_0.203_90.1-2019 Nonresidential CZ 0 Exterior Roof (Mass),
XPS Board_0.14713995500631277_90.1-2019 Nonresidential CZ 0 Exterior Roof (Mass),
Vaporpermeable Felt_0.003_90.1-2019 Nonresidential CZ 0 Exterior Roof (Mass);



! Materials
!- Material: Vaporpermeable Felt Type: Finishes
Material, Vaporpermeable Felt_0.003_90.1-2019 Nonresidential CZ 0 Exterior Roof (Mass) ,                !- Material name 
 Rough,                                         !- Roughness
 0.003,   !- @90.1-2019 Nonresidential CZ 0 Exterior Roof (Mass):Vaporpermeable Felt-Thickness@ [m]
 0.909090909,   !- @90.1-2019 Nonresidential CZ 0 Exterior Roof (Mass):Vaporpermeable Felt-Conductivity@ [W/m-K]
 0.5,   !- @90.1-2019 Nonresidential CZ 0 Exterior Roof (Mass):Vaporpermeable Felt-Density@ [kg/m3]
 1800,   !- @90.1-2019 Nonresidential CZ 0 Exterior Roof (Mass):Vaporpermeable Felt-SpecificHeat@ [J/kg-K]
 0.9,   !- @90.1-2019 Nonresidential CZ 0 Exterior Roof (Mass):Vaporpermeable Felt-ThermalEmittance@
 0.7,   !- @90.1-2019 Nonresidential CZ 0 Exterior Roof (Mass):Vaporpermeable Felt-SolarAbsorptance@
 0.7;   !- @90.1-2019 Nonresidential CZ 0 Exterior Roof (Mass):Vaporpermeable Felt-VisibleAbsorptance@

!- Material: XPS Board Type: Insulation
Material, XPS Board_0.14713995500631277_90.1-2019 Nonresidential CZ 0 Exterior Roof (Mass) ,                !- Material name 
 Rough,                                         !- Roughness
 0.14713995500631277,   !- @90.1-2019 Nonresidential CZ 0 Exterior Roof (Mass):XPS Board-Thickness@ [m]
 0.034,   !- @90.1-2019 Nonresidential CZ 0 Exterior Roof (Mass):XPS Board-Conductivity@ [W/m-K]
 35,   !- @90.1-2019 Nonresidential CZ 0 Exterior Roof (Mass):XPS Board-Density@ [kg/m3]
 1400,   !- @90.1-2019 Nonresidential CZ 0 Exterior Roof (Mass):XPS Board-SpecificHeat@ [J/kg-K]
 0.9,   !- @90.1-2019 Nonresidential CZ 0 Exterior Roof (Mass):XPS Board-ThermalEmittance@
 0.7,   !- @90.1-2019 Nonresidential CZ 0 Exterior Roof (Mass):XPS Board-SolarAbsorptance@
 0.7;   !- @90.1-2019 Nonresidential CZ 0 Exterior Roof (Mass):XPS Board-VisibleAbsorptance@

!- Material: Concrete Type: Concrete
Material, Concrete_0.203_90.1-2019 Nonresidential CZ 0 Exterior Roof (Mass) ,                !- Material name 
 Rough,                                         !- Roughness
 0.203,   !- @90.1-2019 Nonresidential CZ 0 Exterior Roof (Mass):Concrete-Thickness@ [m]
 2,   !- @90.1-2019 Nonresidential CZ 0 Exterior Roof (Mass):Concrete-Conductivity@ [W/m-K]
 2400,   !- @90.1-2019 Nonresidential CZ 0 Exterior Roof (Mass):Concrete-Density@ [kg/m3]
 950,   !- @90.1-2019 Nonresidential CZ 0 Exterior Roof (Mass):Concrete-SpecificHeat@ [J/kg-K]
 0.9,   !- @90.1-2019 Nonresidential CZ 0 Exterior Roof (Mass):Concrete-ThermalEmittance@
 0.7,   !- @90.1-2019 Nonresidential CZ 0 Exterior Roof (Mass):Concrete-SolarAbsorptance@
 0.7;   !- @90.1-2019 Nonresidential CZ 0 Exterior Roof (Mass):Concrete-VisibleAbsorptance@

!- Material: Acoustic Tile Type: Finishes
Material, Acoustic Tile_0.005_90.1-2019 Nonresidential CZ 0 Exterior Roof (Mass) ,                !- Material name 
 MediumSmooth,                                         !- Roughness
 0.005,   !- @90.1-2019 Nonresidential CZ 0 Exterior Roof (Mass):Acoustic Tile-Thickness@ [m]
 0.06,   !- @90.1-2019 Nonresidential CZ 0 Exterior Roof (Mass):Acoustic Tile-Conductivity@ [W/m-K]
 368,   !- @90.1-2019 Nonresidential CZ 0 Exterior Roof (Mass):Acoustic Tile-Density@ [kg/m3]
 590,   !- @90.1-2019 Nonresidential CZ 0 Exterior Roof (Mass):Acoustic Tile-SpecificHeat@ [J/kg-K]
 0.9,   !- @90.1-2019 Nonresidential CZ 0 Exterior Roof (Mass):Acoustic Tile-ThermalEmittance@
 0.7,   !- @90.1-2019 Nonresidential CZ 0 Exterior Roof (Mass):Acoustic Tile-SolarAbsorptance@
 0.7;   !- @90.1-2019 Nonresidential CZ 0 Exterior Roof (Mass):Acoustic Tile-VisibleAbsorptance@




! ------------ GLAZING  


Construction,
    DoublePaneClr,              !- Name
    DoublePaneClrWindow;

WindowMaterial:SimpleGlazingSystem,
DoublePaneClrWindow , !-Name
2.72 ,    !- @DoublePaneClr-UValue@
0.764 ,    !- @DoublePaneClr-SolarHeatGainCoefficient@
0.812;    !- @DoublePaneClr-VisibleTransmittance@


! ------------ SCHEDULES ------------



Schedule:Constant,
  AllOn,                     !- Name
  Fraction,                  !- Schedule Type Limits Name
  1;                       !- Value




Schedule:Constant,
  AirSpeed 0,                     !- Name
  AnyNumber,                  !- Schedule Type Limits Name
  0;                       !- Value



Schedule:Day:Hourly, 196b2e71-9258-46d0-be31-5bda7f87ca2e, AnyNumber,412.77,412.77167,412.77333,412.775,412.77667,412.77833,412.78,412.78167,412.78333,412.785,412.78667,412.78833,412.79,412.79167,412.79333,412.795,412.79667,412.79833,412.8,412.80167,412.80333,412.805,412.80667,412.80833;

Schedule:Day:Hourly, f3677061-fdac-4913-93ff-e34d072d317e, AnyNumber,412.81,412.81125,412.8125,412.81375,412.815,412.81625,412.8175,412.81875,412.82,412.82125,412.8225,412.82375,412.825,412.82625,412.8275,412.82875,412.83,412.83125,412.8325,412.83375,412.835,412.83625,412.8375,412.83875;

Schedule:Day:Hourly, f617283f-8238-4f25-ae48-114c84f307d3, AnyNumber,412.84,412.84167,412.84333,412.845,412.84667,412.84833,412.85,412.85167,412.85333,412.855,412.85667,412.85833,412.86,412.86167,412.86333,412.865,412.86667,412.86833,412.87,412.87167,412.87333,412.875,412.87667,412.87833;

Schedule:Day:Hourly, 1b26ed76-7adb-492a-8994-47e46e8858df, AnyNumber,412.88,412.88125,412.8825,412.88375,412.885,412.88625,412.8875,412.88875,412.89,412.89125,412.8925,412.89375,412.895,412.89625,412.8975,412.89875,412.9,412.90125,412.9025,412.90375,412.905,412.90625,412.9075,412.90875;

Schedule:Day:Hourly, 3706bbb5-d7bd-4cb6-aa97-1f96bd01438f, AnyNumber,412.91,412.91167,412.91333,412.915,412.91667,412.91833,412.92,412.92167,412.92333,412.925,412.92667,412.92833,412.93,412.93167,412.93333,412.935,412.93667,412.93833,412.94,412.94167,412.94333,412.945,412.94667,412.94833;

Schedule:Day:Hourly, f31aa372-c001-4652-b15f-bbe7b3fd9823, AnyNumber,412.95,412.95125,412.9525,412.95375,412.955,412.95625,412.9575,412.95875,412.96,412.96125,412.9625,412.96375,412.965,412.96625,412.9675,412.96875,412.97,412.97125,412.9725,412.97375,412.975,412.97625,412.9775,412.97875;

Schedule:Day:Hourly, f8f43bea-28a7-48ca-8bf9-e6c5303cb52b, AnyNumber,412.98,412.98125,412.9825,412.98375,412.985,412.98625,412.9875,412.98875,412.99,412.99125,412.9925,412.99375,412.995,412.99625,412.9975,412.99875,413,413.00125,413.0025,413.00375,413.005,413.00625,413.0075,413.00875;

Schedule:Day:Hourly, ac4db6bc-2621-401e-a9f9-49ca1eca0b02, AnyNumber,413.01,413.01125,413.0125,413.01375,413.015,413.01625,413.0175,413.01875,413.02,413.02125,413.0225,413.02375,413.025,413.02625,413.0275,413.02875,413.03,413.03125,413.0325,413.03375,413.035,413.03625,413.0375,413.03875;

Schedule:Day:Hourly, 8fd1d5a6-5b78-4338-92b8-429a620c4522, AnyNumber,413.04,413.04167,413.04333,413.045,413.04667,413.04833,413.05,413.05167,413.05333,413.055,413.05667,413.05833,413.06,413.06167,413.06333,413.065,413.06667,413.06833,413.07,413.07167,413.07333,413.075,413.07667,413.07833;

Schedule:Day:Hourly, 2b02e38d-e18b-433b-9347-4a4cce9b2f2f, AnyNumber,413.08,413.08125,413.0825,413.08375,413.085,413.08625,413.0875,413.08875,413.09,413.09125,413.0925,413.09375,413.095,413.09625,413.0975,413.09875,413.1,413.10125,413.1025,413.10375,413.105,413.10625,413.1075,413.10875;

Schedule:Day:Hourly, c8e9f13c-7835-4cba-b1ce-65d2b3ca4c6f, AnyNumber,413.11,413.11125,413.1125,413.11375,413.115,413.11625,413.1175,413.11875,413.12,413.12125,413.1225,413.12375,413.125,413.12625,413.1275,413.12875,413.13,413.13125,413.1325,413.13375,413.135,413.13625,413.1375,413.13875;

Schedule:Day:Hourly, 14022ea1-17dc-46d7-ba21-4ec7eeec48f5, AnyNumber,413.14,413.14125,413.1425,413.14375,413.145,413.14625,413.1475,413.14875,413.15,413.15125,413.1525,413.15375,413.155,413.15625,413.1575,413.15875,413.16,413.16125,413.1625,413.16375,413.165,413.16625,413.1675,413.16875;

Schedule:Day:Hourly, 13f3dd89-e07a-4c66-9818-9469be367bb1, AnyNumber,413.17,413.17125,413.1725,413.17375,413.175,413.17625,413.1775,413.17875,413.18,413.18125,413.1825,413.18375,413.185,413.18625,413.1875,413.18875,413.19,413.19125,413.1925,413.19375,413.195,413.19625,413.1975,413.19875;

Schedule:Day:Hourly, b5e87eab-3489-4969-a4ec-26ab253e955b, AnyNumber,413.2,413.20125,413.2025,413.20375,413.205,413.20625,413.2075,413.20875,413.21,413.21125,413.2125,413.21375,413.215,413.21625,413.2175,413.21875,413.22,413.22125,413.2225,413.22375,413.225,413.22625,413.2275,413.22875;

Schedule:Day:Hourly, 0ab69f45-e765-49e6-96bf-0fc5bae1b255, AnyNumber,413.23,413.23083,413.23167,413.2325,413.23333,413.23417,413.235,413.23583,413.23667,413.2375,413.23833,413.23917,413.24,413.24083,413.24167,413.2425,413.24333,413.24417,413.245,413.24583,413.24667,413.2475,413.24833,413.24917;

Schedule:Day:Hourly, 3aeb468b-17f1-4409-b164-d7643a8c78e2, AnyNumber,413.25,413.25125,413.2525,413.25375,413.255,413.25625,413.2575,413.25875,413.26,413.26125,413.2625,413.26375,413.265,413.26625,413.2675,413.26875,413.27,413.27125,413.2725,413.27375,413.275,413.27625,413.2775,413.27875;

Schedule:Day:Hourly, 5494dde4-7104-4119-b9c7-12cc2c51627a, AnyNumber,413.28,413.28125,413.2825,413.28375,413.285,413.28625,413.2875,413.28875,413.29,413.29125,413.2925,413.29375,413.295,413.29625,413.2975,413.29875,413.3,413.30125,413.3025,413.30375,413.305,413.30625,413.3075,413.30875;

Schedule:Day:Hourly, a2671ea0-b5a1-411e-98db-b25c9b543ab2, AnyNumber,413.31,413.31083,413.31167,413.3125,413.31333,413.31417,413.315,413.31583,413.31667,413.3175,413.31833,413.31917,413.32,413.32083,413.32167,413.3225,413.32333,413.32417,413.325,413.32583,413.32667,413.3275,413.32833,413.32917;

Schedule:Day:Hourly, 2c389906-4b1d-4401-b277-9e2bdf51dae1, AnyNumber,413.33,413.33125,413.3325,413.33375,413.335,413.33625,413.3375,413.33875,413.34,413.34125,413.3425,413.34375,413.345,413.34625,413.3475,413.34875,413.35,413.35125,413.3525,413.35375,413.355,413.35625,413.3575,413.35875;

Schedule:Day:Hourly, 391747eb-4002-4471-9a06-ee7a4e5ab01b, AnyNumber,413.36,413.36083,413.36167,413.3625,413.36333,413.36417,413.365,413.36583,413.36667,413.3675,413.36833,413.36917,413.37,413.37083,413.37167,413.3725,413.37333,413.37417,413.375,413.37583,413.37667,413.3775,413.37833,413.37917;

Schedule:Day:Hourly, 1cfffcac-3cf8-43a2-9749-5b1fd557b6b1, AnyNumber,413.38,413.38125,413.3825,413.38375,413.385,413.38625,413.3875,413.38875,413.39,413.39125,413.3925,413.39375,413.395,413.39625,413.3975,413.39875,413.4,413.40125,413.4025,413.40375,413.405,413.40625,413.4075,413.40875;

Schedule:Day:Hourly, 7970eab2-8b96-480b-a59d-ead121638bed, AnyNumber,413.41,413.41083,413.41167,413.4125,413.41333,413.41417,413.415,413.41583,413.41667,413.4175,413.41833,413.41917,413.42,413.42083,413.42167,413.4225,413.42333,413.42417,413.425,413.42583,413.42667,413.4275,413.42833,413.42917;

Schedule:Day:Hourly, 281c6359-460a-45c9-bdc3-45a77d7d78a2, AnyNumber,413.43,413.43083,413.43167,413.4325,413.43333,413.43417,413.435,413.43583,413.43667,413.4375,413.43833,413.43917,413.44,413.44083,413.44167,413.4425,413.44333,413.44417,413.445,413.44583,413.44667,413.4475,413.44833,413.44917;

Schedule:Day:Hourly, 071f961d-38c7-41ab-b9c9-2517951488c1, AnyNumber,413.45,413.45083,413.45167,413.4525,413.45333,413.45417,413.455,413.45583,413.45667,413.4575,413.45833,413.45917,413.46,413.46083,413.46167,413.4625,413.46333,413.46417,413.465,413.46583,413.46667,413.4675,413.46833,413.46917;

Schedule:Day:Hourly, 4eb16123-8e56-4e5a-a137-ca6d98d4cd93, AnyNumber,413.47,413.47083,413.47167,413.4725,413.47333,413.47417,413.475,413.47583,413.47667,413.4775,413.47833,413.47917,413.48,413.48083,413.48167,413.4825,413.48333,413.48417,413.485,413.48583,413.48667,413.4875,413.48833,413.48917;

Schedule:Day:Hourly, 9c8a692a-f653-4556-b607-511a5618678a, AnyNumber,413.49,413.49083,413.49167,413.4925,413.49333,413.49417,413.495,413.49583,413.49667,413.4975,413.49833,413.49917,413.5,413.50083,413.50167,413.5025,413.50333,413.50417,413.505,413.50583,413.50667,413.5075,413.50833,413.50917;

Schedule:Day:Hourly, 8a996b26-00a3-44ea-a0aa-a8336ed9d1d2, AnyNumber,413.51,413.51042,413.51083,413.51125,413.51167,413.51208,413.5125,413.51292,413.51333,413.51375,413.51417,413.51458,413.515,413.51542,413.51583,413.51625,413.51667,413.51708,413.5175,413.51792,413.51833,413.51875,413.51917,413.51958;

Schedule:Day:Hourly, 6c6cf37c-ff2f-41a5-94e5-c6ec55a457b7, AnyNumber,413.52,413.52083,413.52167,413.5225,413.52333,413.52417,413.525,413.52583,413.52667,413.5275,413.52833,413.52917,413.53,413.53083,413.53167,413.5325,413.53333,413.53417,413.535,413.53583,413.53667,413.5375,413.53833,413.53917;

Schedule:Day:Hourly, da4e8571-1634-4d11-a68b-746996ed7c1b, AnyNumber,413.54,413.54083,413.54167,413.5425,413.54333,413.54417,413.545,413.54583,413.54667,413.5475,413.54833,413.54917,413.55,413.55083,413.55167,413.5525,413.55333,413.55417,413.555,413.55583,413.55667,413.5575,413.55833,413.55917;

Schedule:Day:Hourly, fcda81e2-1a3a-43f9-9f43-3b2a022d20d4, AnyNumber,413.56,413.56042,413.56083,413.56125,413.56167,413.56208,413.5625,413.56292,413.56333,413.56375,413.56417,413.56458,413.565,413.56542,413.56583,413.56625,413.56667,413.56708,413.5675,413.56792,413.56833,413.56875,413.56917,413.56958;

Schedule:Day:Hourly, 1539254c-1733-4e32-8bfc-333c9a7c7881, AnyNumber,413.57,413.57042,413.57083,413.57125,413.57167,413.57208,413.5725,413.57292,413.57333,413.57375,413.57417,413.57458,413.575,413.57542,413.57583,413.57625,413.57667,413.57708,413.5775,413.57792,413.57833,413.57875,413.57917,413.57958;

Schedule:Day:Hourly, 39c29aca-97dd-478f-9407-d24defd929c1, AnyNumber,413.58,413.58083,413.58167,413.5825,413.58333,413.58417,413.585,413.58583,413.58667,413.5875,413.58833,413.58917,413.59,413.59083,413.59167,413.5925,413.59333,413.59417,413.595,413.59583,413.59667,413.5975,413.59833,413.59917;

Schedule:Day:Hourly, fb9c9420-0f11-48de-8ea7-aa246b1f3a37, AnyNumber,413.6,413.60042,413.60083,413.60125,413.60167,413.60208,413.6025,413.60292,413.60333,413.60375,413.60417,413.60458,413.605,413.60542,413.60583,413.60625,413.60667,413.60708,413.6075,413.60792,413.60833,413.60875,413.60917,413.60958;

Schedule:Day:Hourly, a26f3130-17c6-400a-ba41-7c7c1385f76f, AnyNumber,413.61,413.61042,413.61083,413.61125,413.61167,413.61208,413.6125,413.61292,413.61333,413.61375,413.61417,413.61458,413.615,413.61542,413.61583,413.61625,413.61667,413.61708,413.6175,413.61792,413.61833,413.61875,413.61917,413.61958;

Schedule:Day:Hourly, becac4de-1628-4288-af69-062a12e4a88b, AnyNumber,413.62,413.62042,413.62083,413.62125,413.62167,413.62208,413.6225,413.62292,413.62333,413.62375,413.62417,413.62458,413.625,413.62542,413.62583,413.62625,413.62667,413.62708,413.6275,413.62792,413.62833,413.62875,413.62917,413.62958;

Schedule:Day:Hourly, 6bd97ce5-933a-40ee-8126-909292b79718, AnyNumber,413.63,413.63042,413.63083,413.63125,413.63167,413.63208,413.6325,413.63292,413.63333,413.63375,413.63417,413.63458,413.635,413.63542,413.63583,413.63625,413.63667,413.63708,413.6375,413.63792,413.63833,413.63875,413.63917,413.63958;

Schedule:Day:Hourly, e4684f38-24ec-4293-ad32-c7c01842b815, AnyNumber,413.64,413.64042,413.64083,413.64125,413.64167,413.64208,413.6425,413.64292,413.64333,413.64375,413.64417,413.64458,413.645,413.64542,413.64583,413.64625,413.64667,413.64708,413.6475,413.64792,413.64833,413.64875,413.64917,413.64958;

Schedule:Day:Hourly, 551bf0e4-7bf6-4908-9b8e-5f6a50bef2eb, AnyNumber,413.65,413.65042,413.65083,413.65125,413.65167,413.65208,413.6525,413.65292,413.65333,413.65375,413.65417,413.65458,413.655,413.65542,413.65583,413.65625,413.65667,413.65708,413.6575,413.65792,413.65833,413.65875,413.65917,413.65958;

Schedule:Day:Hourly, 0c89c17e-c939-45f8-a95b-284ffb9e8954, AnyNumber,413.66,413.66,413.66,413.66,413.66,413.66,413.66,413.66,413.66,413.66,413.66,413.66,413.66,413.66,413.66,413.66,413.66,413.66,413.66,413.66,413.66,413.66,413.66,413.66;

Schedule:Day:Hourly, 1276fa4c-e141-4b9a-a7f7-08a212efe7dc, AnyNumber,413.66,413.66042,413.66083,413.66125,413.66167,413.66208,413.6625,413.66292,413.66333,413.66375,413.66417,413.66458,413.665,413.66542,413.66583,413.66625,413.66667,413.66708,413.6675,413.66792,413.66833,413.66875,413.66917,413.66958;

Schedule:Day:Hourly, 6a20f689-1445-4428-b9e0-454a21e7768e, AnyNumber,413.67,413.67042,413.67083,413.67125,413.67167,413.67208,413.6725,413.67292,413.67333,413.67375,413.67417,413.67458,413.675,413.67542,413.67583,413.67625,413.67667,413.67708,413.6775,413.67792,413.67833,413.67875,413.67917,413.67958;

Schedule:Day:Hourly, a05495c2-cfd9-4206-ab0b-76ea41716fc3, AnyNumber,413.68,413.68,413.68,413.68,413.68,413.68,413.68,413.68,413.68,413.68,413.68,413.68,413.68,413.68,413.68,413.68,413.68,413.68,413.68,413.68,413.68,413.68,413.68,413.68;

Schedule:Day:Hourly, 006ed613-653d-4242-9f04-c5306ecb62ca, AnyNumber,413.68,413.68042,413.68083,413.68125,413.68167,413.68208,413.6825,413.68292,413.68333,413.68375,413.68417,413.68458,413.685,413.68542,413.68583,413.68625,413.68667,413.68708,413.6875,413.68792,413.68833,413.68875,413.68917,413.68958;

Schedule:Day:Hourly, 4ef2a926-ce51-4db5-b1af-eeb8068fe2ec, AnyNumber,413.69,413.69,413.69,413.69,413.69,413.69,413.69,413.69,413.69,413.69,413.69,413.69,413.69,413.69,413.69,413.69,413.69,413.69,413.69,413.69,413.69,413.69,413.69,413.69;

Schedule:Day:Hourly, 8df9778f-5068-4d08-a1b0-73af5b32e3a7, AnyNumber,413.69,413.69042,413.69083,413.69125,413.69167,413.69208,413.6925,413.69292,413.69333,413.69375,413.69417,413.69458,413.695,413.69542,413.69583,413.69625,413.69667,413.69708,413.6975,413.69792,413.69833,413.69875,413.69917,413.69958;

Schedule:Day:Hourly, 31fb17f1-48dc-41ba-9ace-3c2b6dc15985, AnyNumber,413.7,413.7,413.7,413.7,413.7,413.7,413.7,413.7,413.7,413.7,413.7,413.7,413.7,413.7,413.7,413.7,413.7,413.7,413.7,413.7,413.7,413.7,413.7,413.7;

Schedule:Day:Hourly, 17e271a8-8566-48f0-a76b-18dd6ac44637, AnyNumber,413.7,413.70042,413.70083,413.70125,413.70167,413.70208,413.7025,413.70292,413.70333,413.70375,413.70417,413.70458,413.705,413.70542,413.70583,413.70625,413.70667,413.70708,413.7075,413.70792,413.70833,413.70875,413.70917,413.70958;

Schedule:Day:Hourly, cbd1015b-1a7d-482c-b9f1-0915b46cf7a0, AnyNumber,413.71,413.71,413.71,413.71,413.71,413.71,413.71,413.71,413.71,413.71,413.71,413.71,413.71,413.71,413.71,413.71,413.71,413.71,413.71,413.71,413.71,413.71,413.71,413.71;

Schedule:Day:Hourly, a5f463a5-ae76-4400-a67e-ef582e196536, AnyNumber,413.71,413.71042,413.71083,413.71125,413.71167,413.71208,413.7125,413.71292,413.71333,413.71375,413.71417,413.71458,413.715,413.71542,413.71583,413.71625,413.71667,413.71708,413.7175,413.71792,413.71833,413.71875,413.71917,413.71958;

Schedule:Day:Hourly, 5a5cea5e-ca42-4ef4-92bf-3cb462434c36, AnyNumber,413.72,413.72,413.72,413.72,413.72,413.72,413.72,413.72,413.72,413.72,413.72,413.72,413.72,413.72,413.72,413.72,413.72,413.72,413.72,413.72,413.72,413.72,413.72,413.72;

Schedule:Day:Hourly, 45b09caa-95a7-4e8b-a86e-de8da0bc37d2, AnyNumber,413.72,413.72042,413.72083,413.72125,413.72167,413.72208,413.7225,413.72292,413.72333,413.72375,413.72417,413.72458,413.725,413.72542,413.72583,413.72625,413.72667,413.72708,413.7275,413.72792,413.72833,413.72875,413.72917,413.72958;

Schedule:Day:Hourly, 207f6a57-2528-4157-acb6-139de67a32de, AnyNumber,413.73,413.73,413.73,413.73,413.73,413.73,413.73,413.73,413.73,413.73,413.73,413.73,413.73,413.73,413.73,413.73,413.73,413.73,413.73,413.73,413.73,413.73,413.73,413.73;

Schedule:Day:Hourly, 66f99768-2848-4f7e-af78-c5ba11c3e655, AnyNumber,413.73,413.73042,413.73083,413.73125,413.73167,413.73208,413.7325,413.73292,413.73333,413.73375,413.73417,413.73458,413.735,413.73542,413.73583,413.73625,413.73667,413.73708,413.7375,413.73792,413.73833,413.73875,413.73917,413.73958;

Schedule:Day:Hourly, b197e35a-df6a-41bc-b08a-b112dad21638, AnyNumber,413.74,413.74,413.74,413.74,413.74,413.74,413.74,413.74,413.74,413.74,413.74,413.74,413.74,413.74,413.74,413.74,413.74,413.74,413.74,413.74,413.74,413.74,413.74,413.74;

Schedule:Day:Hourly, 804a3690-434f-4922-8735-df862697bc20, AnyNumber,413.74,413.74042,413.74083,413.74125,413.74167,413.74208,413.7425,413.74292,413.74333,413.74375,413.74417,413.74458,413.745,413.74542,413.74583,413.74625,413.74667,413.74708,413.7475,413.74792,413.74833,413.74875,413.74917,413.74958;

Schedule:Day:Hourly, dc2f6ae5-70c1-4333-b02e-e1d623fa12e7, AnyNumber,413.75,413.75,413.75,413.75,413.75,413.75,413.75,413.75,413.75,413.75,413.75,413.75,413.75,413.75,413.75,413.75,413.75,413.75,413.75,413.75,413.75,413.75,413.75,413.75;

Schedule:Day:Hourly, fc957f16-fbf6-4b00-b29d-58aaca014225, AnyNumber,413.75,413.75042,413.75083,413.75125,413.75167,413.75208,413.7525,413.75292,413.75333,413.75375,413.75417,413.75458,413.755,413.75542,413.75583,413.75625,413.75667,413.75708,413.7575,413.75792,413.75833,413.75875,413.75917,413.75958;

Schedule:Day:Hourly, a12dbe7e-7765-4d7b-944b-eb9e513bd1ff, AnyNumber,413.76,413.76,413.76,413.76,413.76,413.76,413.76,413.76,413.76,413.76,413.76,413.76,413.76,413.76,413.76,413.76,413.76,413.76,413.76,413.76,413.76,413.76,413.76,413.76;

Schedule:Day:Hourly, 1af318fc-aad7-43d6-841e-09599fdf6d07, AnyNumber,413.76,413.76042,413.76083,413.76125,413.76167,413.76208,413.7625,413.76292,413.76333,413.76375,413.76417,413.76458,413.765,413.76542,413.76583,413.76625,413.76667,413.76708,413.7675,413.76792,413.76833,413.76875,413.76917,413.76958;

Schedule:Day:Hourly, 20df2ad1-f5bf-431e-9084-ec46fc87960b, AnyNumber,413.77,413.77042,413.77083,413.77125,413.77167,413.77208,413.7725,413.77292,413.77333,413.77375,413.77417,413.77458,413.775,413.77542,413.77583,413.77625,413.77667,413.77708,413.7775,413.77792,413.77833,413.77875,413.77917,413.77958;

Schedule:Day:Hourly, f55aaf13-564f-407a-a9a6-d2f5323c6209, AnyNumber,413.78,413.78,413.78,413.78,413.78,413.78,413.78,413.78,413.78,413.78,413.78,413.78,413.78,413.78,413.78,413.78,413.78,413.78,413.78,413.78,413.78,413.78,413.78,413.78;

Schedule:Day:Hourly, c8f658e6-fcd1-4b48-b4d8-2ad449e226da, AnyNumber,413.78,413.78042,413.78083,413.78125,413.78167,413.78208,413.7825,413.78292,413.78333,413.78375,413.78417,413.78458,413.785,413.78542,413.78583,413.78625,413.78667,413.78708,413.7875,413.78792,413.78833,413.78875,413.78917,413.78958;

Schedule:Day:Hourly, acad6b0d-4952-4674-b444-e0f469b21e4e, AnyNumber,413.79,413.79042,413.79083,413.79125,413.79167,413.79208,413.7925,413.79292,413.79333,413.79375,413.79417,413.79458,413.795,413.79542,413.79583,413.79625,413.79667,413.79708,413.7975,413.79792,413.79833,413.79875,413.79917,413.79958;

Schedule:Day:Hourly, d656898c-f903-44fa-99fc-dfd774fd5f15, AnyNumber,413.8,413.80042,413.80083,413.80125,413.80167,413.80208,413.8025,413.80292,413.80333,413.80375,413.80417,413.80458,413.805,413.80542,413.80583,413.80625,413.80667,413.80708,413.8075,413.80792,413.80833,413.80875,413.80917,413.80958;

Schedule:Day:Hourly, 50a9e032-4fa8-4f6a-9296-2bcf72e488ab, AnyNumber,413.81,413.81042,413.81083,413.81125,413.81167,413.81208,413.8125,413.81292,413.81333,413.81375,413.81417,413.81458,413.815,413.81542,413.81583,413.81625,413.81667,413.81708,413.8175,413.81792,413.81833,413.81875,413.81917,413.81958;

Schedule:Day:Hourly, 72abaf3e-a743-415c-a490-dd023dd46a19, AnyNumber,413.82,413.82042,413.82083,413.82125,413.82167,413.82208,413.8225,413.82292,413.82333,413.82375,413.82417,413.82458,413.825,413.82542,413.82583,413.82625,413.82667,413.82708,413.8275,413.82792,413.82833,413.82875,413.82917,413.82958;

Schedule:Day:Hourly, 877023bc-35f8-4195-ab82-c991f9745de9, AnyNumber,413.83,413.83042,413.83083,413.83125,413.83167,413.83208,413.8325,413.83292,413.83333,413.83375,413.83417,413.83458,413.835,413.83542,413.83583,413.83625,413.83667,413.83708,413.8375,413.83792,413.83833,413.83875,413.83917,413.83958;

Schedule:Day:Hourly, 2d54760c-f5cd-4752-b251-22c89003cfe7, AnyNumber,413.84,413.84042,413.84083,413.84125,413.84167,413.84208,413.8425,413.84292,413.84333,413.84375,413.84417,413.84458,413.845,413.84542,413.84583,413.84625,413.84667,413.84708,413.8475,413.84792,413.84833,413.84875,413.84917,413.84958;

Schedule:Day:Hourly, a8006f25-90cd-45a9-bf86-1ab96edbd261, AnyNumber,413.85,413.85042,413.85083,413.85125,413.85167,413.85208,413.8525,413.85292,413.85333,413.85375,413.85417,413.85458,413.855,413.85542,413.85583,413.85625,413.85667,413.85708,413.8575,413.85792,413.85833,413.85875,413.85917,413.85958;

Schedule:Day:Hourly, 0918779e-4c86-47d1-8c1c-23ed5e10c81b, AnyNumber,413.86,413.86042,413.86083,413.86125,413.86167,413.86208,413.8625,413.86292,413.86333,413.86375,413.86417,413.86458,413.865,413.86542,413.86583,413.86625,413.86667,413.86708,413.8675,413.86792,413.86833,413.86875,413.86917,413.86958;

Schedule:Day:Hourly, 504d6878-4286-41a7-a066-19dd2aa0aa5f, AnyNumber,413.87,413.87042,413.87083,413.87125,413.87167,413.87208,413.8725,413.87292,413.87333,413.87375,413.87417,413.87458,413.875,413.87542,413.87583,413.87625,413.87667,413.87708,413.8775,413.87792,413.87833,413.87875,413.87917,413.87958;

Schedule:Day:Hourly, e329d3dd-1c5b-43d5-906b-53e9526796b4, AnyNumber,413.88,413.88042,413.88083,413.88125,413.88167,413.88208,413.8825,413.88292,413.88333,413.88375,413.88417,413.88458,413.885,413.88542,413.88583,413.88625,413.88667,413.88708,413.8875,413.88792,413.88833,413.88875,413.88917,413.88958;

Schedule:Day:Hourly, 58074bd2-c3b9-437d-98ca-8b5396f986b8, AnyNumber,413.89,413.89083,413.89167,413.8925,413.89333,413.89417,413.895,413.89583,413.89667,413.8975,413.89833,413.89917,413.9,413.90083,413.90167,413.9025,413.90333,413.90417,413.905,413.90583,413.90667,413.9075,413.90833,413.90917;

Schedule:Day:Hourly, c441b806-3a88-4510-ae63-2e72053d4729, AnyNumber,413.91,413.91042,413.91083,413.91125,413.91167,413.91208,413.9125,413.91292,413.91333,413.91375,413.91417,413.91458,413.915,413.91542,413.91583,413.91625,413.91667,413.91708,413.9175,413.91792,413.91833,413.91875,413.91917,413.91958;

Schedule:Day:Hourly, cea973d8-bc8a-46b6-949c-f791a1101cac, AnyNumber,413.92,413.92042,413.92083,413.92125,413.92167,413.92208,413.9225,413.92292,413.92333,413.92375,413.92417,413.92458,413.925,413.92542,413.92583,413.92625,413.92667,413.92708,413.9275,413.92792,413.92833,413.92875,413.92917,413.92958;

Schedule:Day:Hourly, 95f27950-5e74-40f1-a5f0-64c889425cd6, AnyNumber,413.93,413.93083,413.93167,413.9325,413.93333,413.93417,413.935,413.93583,413.93667,413.9375,413.93833,413.93917,413.94,413.94083,413.94167,413.9425,413.94333,413.94417,413.945,413.94583,413.94667,413.9475,413.94833,413.94917;

Schedule:Day:Hourly, 51621993-1a25-4967-a008-a0bafcc8ae62, AnyNumber,413.95,413.95042,413.95083,413.95125,413.95167,413.95208,413.9525,413.95292,413.95333,413.95375,413.95417,413.95458,413.955,413.95542,413.95583,413.95625,413.95667,413.95708,413.9575,413.95792,413.95833,413.95875,413.95917,413.95958;

Schedule:Day:Hourly, d179828f-e172-4410-be85-d0fa6af135ed, AnyNumber,413.96,413.96083,413.96167,413.9625,413.96333,413.96417,413.965,413.96583,413.96667,413.9675,413.96833,413.96917,413.97,413.97083,413.97167,413.9725,413.97333,413.97417,413.975,413.97583,413.97667,413.9775,413.97833,413.97917;

Schedule:Day:Hourly, c82d8849-1c6e-4e59-8068-212d110320e8, AnyNumber,413.98,413.98042,413.98083,413.98125,413.98167,413.98208,413.9825,413.98292,413.98333,413.98375,413.98417,413.98458,413.985,413.98542,413.98583,413.98625,413.98667,413.98708,413.9875,413.98792,413.98833,413.98875,413.98917,413.98958;

Schedule:Day:Hourly, f6a00614-a318-4296-8aae-c93190e99702, AnyNumber,413.99,413.99083,413.99167,413.9925,413.99333,413.99417,413.995,413.99583,413.99667,413.9975,413.99833,413.99917,414,414.00083,414.00167,414.0025,414.00333,414.00417,414.005,414.00583,414.00667,414.0075,414.00833,414.00917;

Schedule:Day:Hourly, 8cafc7a4-9245-4b00-a802-ca4b67ab16c1, AnyNumber,414.01,414.01083,414.01167,414.0125,414.01333,414.01417,414.015,414.01583,414.01667,414.0175,414.01833,414.01917,414.02,414.02083,414.02167,414.0225,414.02333,414.02417,414.025,414.02583,414.02667,414.0275,414.02833,414.02917;

Schedule:Day:Hourly, 6386fd52-2d99-4206-8dec-069d3996574d, AnyNumber,414.03,414.03042,414.03083,414.03125,414.03167,414.03208,414.0325,414.03292,414.03333,414.03375,414.03417,414.03458,414.035,414.03542,414.03583,414.03625,414.03667,414.03708,414.0375,414.03792,414.03833,414.03875,414.03917,414.03958;

Schedule:Day:Hourly, 10b9f2ff-64c0-4b49-9c84-44af6bb08c96, AnyNumber,414.04,414.04083,414.04167,414.0425,414.04333,414.04417,414.045,414.04583,414.04667,414.0475,414.04833,414.04917,414.05,414.05083,414.05167,414.0525,414.05333,414.05417,414.055,414.05583,414.05667,414.0575,414.05833,414.05917;

Schedule:Day:Hourly, 2fd5fa91-b98b-4eb1-b39f-72f6ce5f8dfb, AnyNumber,414.06,414.06083,414.06167,414.0625,414.06333,414.06417,414.065,414.06583,414.06667,414.0675,414.06833,414.06917,414.07,414.07083,414.07167,414.0725,414.07333,414.07417,414.075,414.07583,414.07667,414.0775,414.07833,414.07917;

Schedule:Day:Hourly, 42c10887-8269-428c-bf9c-07024f22f6c9, AnyNumber,414.08,414.08042,414.08083,414.08125,414.08167,414.08208,414.0825,414.08292,414.08333,414.08375,414.08417,414.08458,414.085,414.08542,414.08583,414.08625,414.08667,414.08708,414.0875,414.08792,414.08833,414.08875,414.08917,414.08958;

Schedule:Day:Hourly, ec622474-19d6-4001-a71a-40deeb547452, AnyNumber,414.09,414.09083,414.09167,414.0925,414.09333,414.09417,414.095,414.09583,414.09667,414.0975,414.09833,414.09917,414.1,414.10083,414.10167,414.1025,414.10333,414.10417,414.105,414.10583,414.10667,414.1075,414.10833,414.10917;

Schedule:Day:Hourly, cffbe1c2-9dbc-47c1-99a6-774322a2443a, AnyNumber,414.11,414.11083,414.11167,414.1125,414.11333,414.11417,414.115,414.11583,414.11667,414.1175,414.11833,414.11917,414.12,414.12083,414.12167,414.1225,414.12333,414.12417,414.125,414.12583,414.12667,414.1275,414.12833,414.12917;

Schedule:Day:Hourly, c3ddad38-3cde-4a15-8285-187a9754317a, AnyNumber,414.13,414.13083,414.13167,414.1325,414.13333,414.13417,414.135,414.13583,414.13667,414.1375,414.13833,414.13917,414.14,414.14083,414.14167,414.1425,414.14333,414.14417,414.145,414.14583,414.14667,414.1475,414.14833,414.14917;

Schedule:Day:Hourly, 9630c57f-431c-4a5a-b5bb-87914f4200bd, AnyNumber,414.15,414.15042,414.15083,414.15125,414.15167,414.15208,414.1525,414.15292,414.15333,414.15375,414.15417,414.15458,414.155,414.15542,414.15583,414.15625,414.15667,414.15708,414.1575,414.15792,414.15833,414.15875,414.15917,414.15958;

Schedule:Day:Hourly, f25926f2-c81b-4f21-80c0-154462de0e5f, AnyNumber,414.16,414.16083,414.16167,414.1625,414.16333,414.16417,414.165,414.16583,414.16667,414.1675,414.16833,414.16917,414.17,414.17083,414.17167,414.1725,414.17333,414.17417,414.175,414.17583,414.17667,414.1775,414.17833,414.17917;

Schedule:Day:Hourly, d406048f-7c54-4a49-be74-ba365bed3bfb, AnyNumber,414.18,414.18083,414.18167,414.1825,414.18333,414.18417,414.185,414.18583,414.18667,414.1875,414.18833,414.18917,414.19,414.19083,414.19167,414.1925,414.19333,414.19417,414.195,414.19583,414.19667,414.1975,414.19833,414.19917;

Schedule:Day:Hourly, d7009437-693c-46ce-9e85-98be55edbf62, AnyNumber,414.2,414.20083,414.20167,414.2025,414.20333,414.20417,414.205,414.20583,414.20667,414.2075,414.20833,414.20917,414.21,414.21083,414.21167,414.2125,414.21333,414.21417,414.215,414.21583,414.21667,414.2175,414.21833,414.21917;

Schedule:Day:Hourly, d5ad0d53-e8ca-475f-ad93-36b8056ac111, AnyNumber,414.22,414.22042,414.22083,414.22125,414.22167,414.22208,414.2225,414.22292,414.22333,414.22375,414.22417,414.22458,414.225,414.22542,414.22583,414.22625,414.22667,414.22708,414.2275,414.22792,414.22833,414.22875,414.22917,414.22958;

Schedule:Day:Hourly, 9226a04f-18f0-4618-adbd-6a943e2c9b2a, AnyNumber,414.23,414.23083,414.23167,414.2325,414.23333,414.23417,414.235,414.23583,414.23667,414.2375,414.23833,414.23917,414.24,414.24083,414.24167,414.2425,414.24333,414.24417,414.245,414.24583,414.24667,414.2475,414.24833,414.24917;

Schedule:Day:Hourly, 8793b685-8c22-4b31-b35e-618595fcaaf8, AnyNumber,414.25,414.25083,414.25167,414.2525,414.25333,414.25417,414.255,414.25583,414.25667,414.2575,414.25833,414.25917,414.26,414.26083,414.26167,414.2625,414.26333,414.26417,414.265,414.26583,414.26667,414.2675,414.26833,414.26917;

Schedule:Day:Hourly, a9eed6f1-3754-4ab2-b50f-b530355d49ad, AnyNumber,414.27,414.27042,414.27083,414.27125,414.27167,414.27208,414.2725,414.27292,414.27333,414.27375,414.27417,414.27458,414.275,414.27542,414.27583,414.27625,414.27667,414.27708,414.2775,414.27792,414.27833,414.27875,414.27917,414.27958;

Schedule:Day:Hourly, 7a954f48-2267-47f1-8c29-7e5738e645ec, AnyNumber,414.28,414.28083,414.28167,414.2825,414.28333,414.28417,414.285,414.28583,414.28667,414.2875,414.28833,414.28917,414.29,414.29083,414.29167,414.2925,414.29333,414.29417,414.295,414.29583,414.29667,414.2975,414.29833,414.29917;

Schedule:Day:Hourly, 16073ab4-2527-4ce2-b577-bd430a41dd5f, AnyNumber,414.3,414.30083,414.30167,414.3025,414.30333,414.30417,414.305,414.30583,414.30667,414.3075,414.30833,414.30917,414.31,414.31083,414.31167,414.3125,414.31333,414.31417,414.315,414.31583,414.31667,414.3175,414.31833,414.31917;

Schedule:Day:Hourly, 987d6528-7d91-4189-9968-9b729de794ba, AnyNumber,414.32,414.32042,414.32083,414.32125,414.32167,414.32208,414.3225,414.32292,414.32333,414.32375,414.32417,414.32458,414.325,414.32542,414.32583,414.32625,414.32667,414.32708,414.3275,414.32792,414.32833,414.32875,414.32917,414.32958;

Schedule:Day:Hourly, d5abbde8-112a-46fc-b177-0eba6cd521e6, AnyNumber,414.33,414.33083,414.33167,414.3325,414.33333,414.33417,414.335,414.33583,414.33667,414.3375,414.33833,414.33917,414.34,414.34083,414.34167,414.3425,414.34333,414.34417,414.345,414.34583,414.34667,414.3475,414.34833,414.34917;

Schedule:Day:Hourly, 28c79e03-4cd8-469b-94e7-ef421c0aea0e, AnyNumber,414.35,414.35042,414.35083,414.35125,414.35167,414.35208,414.3525,414.35292,414.35333,414.35375,414.35417,414.35458,414.355,414.35542,414.35583,414.35625,414.35667,414.35708,414.3575,414.35792,414.35833,414.35875,414.35917,414.35958;

Schedule:Day:Hourly, ff4f28be-d764-43bd-93a8-04831ebbcaf6, AnyNumber,414.36,414.36083,414.36167,414.3625,414.36333,414.36417,414.365,414.36583,414.36667,414.3675,414.36833,414.36917,414.37,414.37083,414.37167,414.3725,414.37333,414.37417,414.375,414.37583,414.37667,414.3775,414.37833,414.37917;

Schedule:Day:Hourly, d1365ad8-9bdb-4306-a8bd-cc7c2b21a4ff, AnyNumber,414.38,414.38042,414.38083,414.38125,414.38167,414.38208,414.3825,414.38292,414.38333,414.38375,414.38417,414.38458,414.385,414.38542,414.38583,414.38625,414.38667,414.38708,414.3875,414.38792,414.38833,414.38875,414.38917,414.38958;

Schedule:Day:Hourly, b462244e-5506-46ff-98db-73ad4df6bd45, AnyNumber,414.39,414.39042,414.39083,414.39125,414.39167,414.39208,414.3925,414.39292,414.39333,414.39375,414.39417,414.39458,414.395,414.39542,414.39583,414.39625,414.39667,414.39708,414.3975,414.39792,414.39833,414.39875,414.39917,414.39958;

Schedule:Day:Hourly, 5a5eaf5e-ee35-434e-a2bd-6f825b5f18fb, AnyNumber,414.4,414.40083,414.40167,414.4025,414.40333,414.40417,414.405,414.40583,414.40667,414.4075,414.40833,414.40917,414.41,414.41083,414.41167,414.4125,414.41333,414.41417,414.415,414.41583,414.41667,414.4175,414.41833,414.41917;

Schedule:Day:Hourly, 71a8dd8b-8d33-4865-82c7-47fd322c92a9, AnyNumber,414.42,414.42042,414.42083,414.42125,414.42167,414.42208,414.4225,414.42292,414.42333,414.42375,414.42417,414.42458,414.425,414.42542,414.42583,414.42625,414.42667,414.42708,414.4275,414.42792,414.42833,414.42875,414.42917,414.42958;

Schedule:Day:Hourly, 55f8b172-8012-4784-97a1-beaf4df96472, AnyNumber,414.43,414.43042,414.43083,414.43125,414.43167,414.43208,414.4325,414.43292,414.43333,414.43375,414.43417,414.43458,414.435,414.43542,414.43583,414.43625,414.43667,414.43708,414.4375,414.43792,414.43833,414.43875,414.43917,414.43958;

Schedule:Day:Hourly, aad1a63e-7788-480c-b53b-c252d8779cbc, AnyNumber,414.44,414.44042,414.44083,414.44125,414.44167,414.44208,414.4425,414.44292,414.44333,414.44375,414.44417,414.44458,414.445,414.44542,414.44583,414.44625,414.44667,414.44708,414.4475,414.44792,414.44833,414.44875,414.44917,414.44958;

Schedule:Day:Hourly, ceb23d7a-974d-42d5-a06b-93b721a6c2aa, AnyNumber,414.45,414.45042,414.45083,414.45125,414.45167,414.45208,414.4525,414.45292,414.45333,414.45375,414.45417,414.45458,414.455,414.45542,414.45583,414.45625,414.45667,414.45708,414.4575,414.45792,414.45833,414.45875,414.45917,414.45958;

Schedule:Day:Hourly, 4df0867f-ce7a-44e3-b06c-06c80115dee7, AnyNumber,414.46,414.46042,414.46083,414.46125,414.46167,414.46208,414.4625,414.46292,414.46333,414.46375,414.46417,414.46458,414.465,414.46542,414.46583,414.46625,414.46667,414.46708,414.4675,414.46792,414.46833,414.46875,414.46917,414.46958;

Schedule:Day:Hourly, e078a989-3348-4885-afa1-ecbdf6adae7a, AnyNumber,414.47,414.47042,414.47083,414.47125,414.47167,414.47208,414.4725,414.47292,414.47333,414.47375,414.47417,414.47458,414.475,414.47542,414.47583,414.47625,414.47667,414.47708,414.4775,414.47792,414.47833,414.47875,414.47917,414.47958;

Schedule:Day:Hourly, b21e8ab9-1cbb-40bd-bd96-94383e269806, AnyNumber,414.48,414.48042,414.48083,414.48125,414.48167,414.48208,414.4825,414.48292,414.48333,414.48375,414.48417,414.48458,414.485,414.48542,414.48583,414.48625,414.48667,414.48708,414.4875,414.48792,414.48833,414.48875,414.48917,414.48958;

Schedule:Day:Hourly, cdfe1d73-89a9-4fbd-8fa7-963820881530, AnyNumber,414.49,414.49042,414.49083,414.49125,414.49167,414.49208,414.4925,414.49292,414.49333,414.49375,414.49417,414.49458,414.495,414.49542,414.49583,414.49625,414.49667,414.49708,414.4975,414.49792,414.49833,414.49875,414.49917,414.49958;

Schedule:Day:Hourly, f86057cf-4f49-4ded-831c-3312be2b7c0b, AnyNumber,414.5,414.50042,414.50083,414.50125,414.50167,414.50208,414.5025,414.50292,414.50333,414.50375,414.50417,414.50458,414.505,414.50542,414.50583,414.50625,414.50667,414.50708,414.5075,414.50792,414.50833,414.50875,414.50917,414.50958;

Schedule:Day:Hourly, acfc4b07-bce1-46c3-8e09-b9804e5a0f8f, AnyNumber,414.51,414.51,414.51,414.51,414.51,414.51,414.51,414.51,414.51,414.51,414.51,414.51,414.51,414.51,414.51,414.51,414.51,414.51,414.51,414.51,414.51,414.51,414.51,414.51;

Schedule:Day:Hourly, b8c7aff1-f342-4f6b-9d3c-c0da92188d9d, AnyNumber,414.51,414.51042,414.51083,414.51125,414.51167,414.51208,414.5125,414.51292,414.51333,414.51375,414.51417,414.51458,414.515,414.51542,414.51583,414.51625,414.51667,414.51708,414.5175,414.51792,414.51833,414.51875,414.51917,414.51958;

Schedule:Day:Hourly, d46253f0-acc3-4aa2-924e-948601d2a609, AnyNumber,414.52,414.52,414.52,414.52,414.52,414.52,414.52,414.52,414.52,414.52,414.52,414.52,414.52,414.52,414.52,414.52,414.52,414.52,414.52,414.52,414.52,414.52,414.52,414.52;

Schedule:Day:Hourly, fee14d0f-7fba-45ac-8a72-3ba036d11814, AnyNumber,414.52,414.52042,414.52083,414.52125,414.52167,414.52208,414.5225,414.52292,414.52333,414.52375,414.52417,414.52458,414.525,414.52542,414.52583,414.52625,414.52667,414.52708,414.5275,414.52792,414.52833,414.52875,414.52917,414.52958;

Schedule:Day:Hourly, 05835317-9e12-42e7-b277-f55b4172941c, AnyNumber,414.53,414.53,414.53,414.53,414.53,414.53,414.53,414.53,414.53,414.53,414.53,414.53,414.53,414.53,414.53,414.53,414.53,414.53,414.53,414.53,414.53,414.53,414.53,414.53;

Schedule:Day:Hourly, 739a1565-8d1b-4f2f-97ac-407c37b7f8a0, AnyNumber,414.53,414.53042,414.53083,414.53125,414.53167,414.53208,414.5325,414.53292,414.53333,414.53375,414.53417,414.53458,414.535,414.53542,414.53583,414.53625,414.53667,414.53708,414.5375,414.53792,414.53833,414.53875,414.53917,414.53958;

Schedule:Day:Hourly, ec388024-944b-4ba3-848c-6617a2cc9ebe, AnyNumber,414.54,414.54,414.54,414.54,414.54,414.54,414.54,414.54,414.54,414.54,414.54,414.54,414.54,414.54,414.54,414.54,414.54,414.54,414.54,414.54,414.54,414.54,414.54,414.54;

Schedule:Day:Hourly, b4d89bad-5a5d-4453-8c97-80399367ac0f, AnyNumber,414.54,414.53958,414.53917,414.53875,414.53833,414.53792,414.5375,414.53708,414.53667,414.53625,414.53583,414.53542,414.535,414.53458,414.53417,414.53375,414.53333,414.53292,414.5325,414.53208,414.53167,414.53125,414.53083,414.53042;

Schedule:Day:Hourly, 95c668db-b5ea-495b-8453-5fb2f032f9b4, AnyNumber,414.53,414.52958,414.52917,414.52875,414.52833,414.52792,414.5275,414.52708,414.52667,414.52625,414.52583,414.52542,414.525,414.52458,414.52417,414.52375,414.52333,414.52292,414.5225,414.52208,414.52167,414.52125,414.52083,414.52042;

Schedule:Day:Hourly, 393273df-4662-4bf3-bdf4-fa255d3e47c8, AnyNumber,414.52,414.51958,414.51917,414.51875,414.51833,414.51792,414.5175,414.51708,414.51667,414.51625,414.51583,414.51542,414.515,414.51458,414.51417,414.51375,414.51333,414.51292,414.5125,414.51208,414.51167,414.51125,414.51083,414.51042;

Schedule:Day:Hourly, 96bd9c6c-7ac5-423e-96df-2050e3eeecd3, AnyNumber,414.51,414.50958,414.50917,414.50875,414.50833,414.50792,414.5075,414.50708,414.50667,414.50625,414.50583,414.50542,414.505,414.50458,414.50417,414.50375,414.50333,414.50292,414.5025,414.50208,414.50167,414.50125,414.50083,414.50042;

Schedule:Day:Hourly, a5d0f2a7-ae1b-430e-a8a9-5c0a4304fa98, AnyNumber,414.5,414.49958,414.49917,414.49875,414.49833,414.49792,414.4975,414.49708,414.49667,414.49625,414.49583,414.49542,414.495,414.49458,414.49417,414.49375,414.49333,414.49292,414.4925,414.49208,414.49167,414.49125,414.49083,414.49042;

Schedule:Day:Hourly, 540585d1-af83-4401-9ac8-8a1c62514559, AnyNumber,414.49,414.48958,414.48917,414.48875,414.48833,414.48792,414.4875,414.48708,414.48667,414.48625,414.48583,414.48542,414.485,414.48458,414.48417,414.48375,414.48333,414.48292,414.4825,414.48208,414.48167,414.48125,414.48083,414.48042;

Schedule:Day:Hourly, 715d3123-0b0e-42d5-a807-6f02a1207edc, AnyNumber,414.48,414.47958,414.47917,414.47875,414.47833,414.47792,414.4775,414.47708,414.47667,414.47625,414.47583,414.47542,414.475,414.47458,414.47417,414.47375,414.47333,414.47292,414.4725,414.47208,414.47167,414.47125,414.47083,414.47042;

Schedule:Day:Hourly, 997a719a-d4cb-4152-9967-cb9f9022d5a6, AnyNumber,414.47,414.46917,414.46833,414.4675,414.46667,414.46583,414.465,414.46417,414.46333,414.4625,414.46167,414.46083,414.46,414.45917,414.45833,414.4575,414.45667,414.45583,414.455,414.45417,414.45333,414.4525,414.45167,414.45083;

Schedule:Day:Hourly, 1a11cf2c-5f2e-4ab2-b320-cef47a82ae3c, AnyNumber,414.45,414.44958,414.44917,414.44875,414.44833,414.44792,414.4475,414.44708,414.44667,414.44625,414.44583,414.44542,414.445,414.44458,414.44417,414.44375,414.44333,414.44292,414.4425,414.44208,414.44167,414.44125,414.44083,414.44042;

Schedule:Day:Hourly, 1279752c-f967-4af0-82ad-535ab474a37c, AnyNumber,414.44,414.43917,414.43833,414.4375,414.43667,414.43583,414.435,414.43417,414.43333,414.4325,414.43167,414.43083,414.43,414.42917,414.42833,414.4275,414.42667,414.42583,414.425,414.42417,414.42333,414.4225,414.42167,414.42083;

Schedule:Day:Hourly, acce5c1f-cd96-4f51-9113-02720c99c3bc, AnyNumber,414.42,414.41958,414.41917,414.41875,414.41833,414.41792,414.4175,414.41708,414.41667,414.41625,414.41583,414.41542,414.415,414.41458,414.41417,414.41375,414.41333,414.41292,414.4125,414.41208,414.41167,414.41125,414.41083,414.41042;

Schedule:Day:Hourly, a1098175-95e5-41fd-98f8-6ad1cafe1eee, AnyNumber,414.41,414.40917,414.40833,414.4075,414.40667,414.40583,414.405,414.40417,414.40333,414.4025,414.40167,414.40083,414.4,414.39917,414.39833,414.3975,414.39667,414.39583,414.395,414.39417,414.39333,414.3925,414.39167,414.39083;

Schedule:Day:Hourly, f50dc65a-18ae-47ce-bbc4-9e30f87ad557, AnyNumber,414.39,414.38917,414.38833,414.3875,414.38667,414.38583,414.385,414.38417,414.38333,414.3825,414.38167,414.38083,414.38,414.37917,414.37833,414.3775,414.37667,414.37583,414.375,414.37417,414.37333,414.3725,414.37167,414.37083;

Schedule:Day:Hourly, 321564c2-d23e-451e-b47f-f2bd74d0aed5, AnyNumber,414.37,414.36917,414.36833,414.3675,414.36667,414.36583,414.365,414.36417,414.36333,414.3625,414.36167,414.36083,414.36,414.35917,414.35833,414.3575,414.35667,414.35583,414.355,414.35417,414.35333,414.3525,414.35167,414.35083;

Schedule:Day:Hourly, 3afa4dc8-f7dc-44e9-85d5-d0bfa62fa96c, AnyNumber,414.35,414.34917,414.34833,414.3475,414.34667,414.34583,414.345,414.34417,414.34333,414.3425,414.34167,414.34083,414.34,414.33917,414.33833,414.3375,414.33667,414.33583,414.335,414.33417,414.33333,414.3325,414.33167,414.33083;

Schedule:Day:Hourly, c6e90952-f98b-4be4-a45f-3a863b3aa707, AnyNumber,414.33,414.32875,414.3275,414.32625,414.325,414.32375,414.3225,414.32125,414.32,414.31875,414.3175,414.31625,414.315,414.31375,414.3125,414.31125,414.31,414.30875,414.3075,414.30625,414.305,414.30375,414.3025,414.30125;

Schedule:Day:Hourly, 4aa8e288-43a5-4985-ad43-349ea22b9931, AnyNumber,414.3,414.29917,414.29833,414.2975,414.29667,414.29583,414.295,414.29417,414.29333,414.2925,414.29167,414.29083,414.29,414.28917,414.28833,414.2875,414.28667,414.28583,414.285,414.28417,414.28333,414.2825,414.28167,414.28083;

Schedule:Day:Hourly, 980cae7c-19b4-41a5-a9fa-8dcc7e910c0e, AnyNumber,414.28,414.27875,414.2775,414.27625,414.275,414.27375,414.2725,414.27125,414.27,414.26875,414.2675,414.26625,414.265,414.26375,414.2625,414.26125,414.26,414.25875,414.2575,414.25625,414.255,414.25375,414.2525,414.25125;

Schedule:Day:Hourly, 8cd0f113-a00a-4016-aa35-829fa76efde8, AnyNumber,414.25,414.24875,414.2475,414.24625,414.245,414.24375,414.2425,414.24125,414.24,414.23875,414.2375,414.23625,414.235,414.23375,414.2325,414.23125,414.23,414.22875,414.2275,414.22625,414.225,414.22375,414.2225,414.22125;

Schedule:Day:Hourly, cd7eda38-fc23-4d07-957c-92d580c30205, AnyNumber,414.22,414.21875,414.2175,414.21625,414.215,414.21375,414.2125,414.21125,414.21,414.20875,414.2075,414.20625,414.205,414.20375,414.2025,414.20125,414.2,414.19875,414.1975,414.19625,414.195,414.19375,414.1925,414.19125;

Schedule:Day:Hourly, 9e620f0b-101d-498f-86f9-aae6b922b85e, AnyNumber,414.19,414.18875,414.1875,414.18625,414.185,414.18375,414.1825,414.18125,414.18,414.17875,414.1775,414.17625,414.175,414.17375,414.1725,414.17125,414.17,414.16875,414.1675,414.16625,414.165,414.16375,414.1625,414.16125;

Schedule:Day:Hourly, 58d640a5-63f0-4ef4-af7a-373e0723f7e3, AnyNumber,414.16,414.15875,414.1575,414.15625,414.155,414.15375,414.1525,414.15125,414.15,414.14875,414.1475,414.14625,414.145,414.14375,414.1425,414.14125,414.14,414.13875,414.1375,414.13625,414.135,414.13375,414.1325,414.13125;

Schedule:Day:Hourly, 34c297a5-65fb-40a4-abab-70268e44737b, AnyNumber,414.13,414.12833,414.12667,414.125,414.12333,414.12167,414.12,414.11833,414.11667,414.115,414.11333,414.11167,414.11,414.10833,414.10667,414.105,414.10333,414.10167,414.1,414.09833,414.09667,414.095,414.09333,414.09167;

Schedule:Day:Hourly, 00823ed5-3d05-496e-b5ea-72d2bbe92149, AnyNumber,414.09,414.08875,414.0875,414.08625,414.085,414.08375,414.0825,414.08125,414.08,414.07875,414.0775,414.07625,414.075,414.07375,414.0725,414.07125,414.07,414.06875,414.0675,414.06625,414.065,414.06375,414.0625,414.06125;

Schedule:Day:Hourly, e7d32537-6bc2-4413-93be-f098c56a5739, AnyNumber,414.06,414.05833,414.05667,414.055,414.05333,414.05167,414.05,414.04833,414.04667,414.045,414.04333,414.04167,414.04,414.03833,414.03667,414.035,414.03333,414.03167,414.03,414.02833,414.02667,414.025,414.02333,414.02167;

Schedule:Day:Hourly, 6eb2e4ed-461a-468d-b33e-dc1323329075, AnyNumber,414.02,414.01833,414.01667,414.015,414.01333,414.01167,414.01,414.00833,414.00667,414.005,414.00333,414.00167,414,413.99833,413.99667,413.995,413.99333,413.99167,413.99,413.98833,413.98667,413.985,413.98333,413.98167;

Schedule:Day:Hourly, 792f11e6-7e31-4801-83f5-2d754bb582ff, AnyNumber,413.98,413.97833,413.97667,413.975,413.97333,413.97167,413.97,413.96833,413.96667,413.965,413.96333,413.96167,413.96,413.95833,413.95667,413.955,413.95333,413.95167,413.95,413.94833,413.94667,413.945,413.94333,413.94167;

Schedule:Day:Hourly, 3286419c-8525-428e-9a6d-cac28f7015b3, AnyNumber,413.94,413.93792,413.93583,413.93375,413.93167,413.92958,413.9275,413.92542,413.92333,413.92125,413.91917,413.91708,413.915,413.91292,413.91083,413.90875,413.90667,413.90458,413.9025,413.90042,413.89833,413.89625,413.89417,413.89208;

Schedule:Day:Hourly, b4092304-5da3-4c35-a59a-dfed03a1b128, AnyNumber,413.89,413.88833,413.88667,413.885,413.88333,413.88167,413.88,413.87833,413.87667,413.875,413.87333,413.87167,413.87,413.86833,413.86667,413.865,413.86333,413.86167,413.86,413.85833,413.85667,413.855,413.85333,413.85167;

Schedule:Day:Hourly, 94ee28b3-3660-4d1d-8281-b907c1fe2174, AnyNumber,413.85,413.84792,413.84583,413.84375,413.84167,413.83958,413.8375,413.83542,413.83333,413.83125,413.82917,413.82708,413.825,413.82292,413.82083,413.81875,413.81667,413.81458,413.8125,413.81042,413.80833,413.80625,413.80417,413.80208;

Schedule:Day:Hourly, 2f68c18f-bdd5-499e-a5fe-6566d7b3afef, AnyNumber,413.8,413.79792,413.79583,413.79375,413.79167,413.78958,413.7875,413.78542,413.78333,413.78125,413.77917,413.77708,413.775,413.77292,413.77083,413.76875,413.76667,413.76458,413.7625,413.76042,413.75833,413.75625,413.75417,413.75208;

Schedule:Day:Hourly, 7c60547f-7a82-43a5-bcdf-e40de7d79ead, AnyNumber,413.75,413.74792,413.74583,413.74375,413.74167,413.73958,413.7375,413.73542,413.73333,413.73125,413.72917,413.72708,413.725,413.72292,413.72083,413.71875,413.71667,413.71458,413.7125,413.71042,413.70833,413.70625,413.70417,413.70208;

Schedule:Day:Hourly, 286b6988-5c77-4c0d-b68f-d03822daa7f5, AnyNumber,413.7,413.69792,413.69583,413.69375,413.69167,413.68958,413.6875,413.68542,413.68333,413.68125,413.67917,413.67708,413.675,413.67292,413.67083,413.66875,413.66667,413.66458,413.6625,413.66042,413.65833,413.65625,413.65417,413.65208;

Schedule:Day:Hourly, 5df934ca-6441-4fc4-ba2b-2c37c2283e00, AnyNumber,413.65,413.6475,413.645,413.6425,413.64,413.6375,413.635,413.6325,413.63,413.6275,413.625,413.6225,413.62,413.6175,413.615,413.6125,413.61,413.6075,413.605,413.6025,413.6,413.5975,413.595,413.5925;

Schedule:Day:Hourly, df0205aa-b0eb-4c98-84eb-c973cabede4d, AnyNumber,413.59,413.58792,413.58583,413.58375,413.58167,413.57958,413.5775,413.57542,413.57333,413.57125,413.56917,413.56708,413.565,413.56292,413.56083,413.55875,413.55667,413.55458,413.5525,413.55042,413.54833,413.54625,413.54417,413.54208;

Schedule:Day:Hourly, f7462b36-9c3e-4c00-aea6-547797758472, AnyNumber,413.54,413.5375,413.535,413.5325,413.53,413.5275,413.525,413.5225,413.52,413.5175,413.515,413.5125,413.51,413.5075,413.505,413.5025,413.5,413.4975,413.495,413.4925,413.49,413.4875,413.485,413.4825;

Schedule:Day:Hourly, b9966de8-b9f6-49a7-b9e4-192b65588efb, AnyNumber,413.48,413.4775,413.475,413.4725,413.47,413.4675,413.465,413.4625,413.46,413.4575,413.455,413.4525,413.45,413.4475,413.445,413.4425,413.44,413.4375,413.435,413.4325,413.43,413.4275,413.425,413.4225;

Schedule:Day:Hourly, fccf14e6-94c4-4822-a4d6-7d004575564d, AnyNumber,413.42,413.4175,413.415,413.4125,413.41,413.4075,413.405,413.4025,413.4,413.3975,413.395,413.3925,413.39,413.3875,413.385,413.3825,413.38,413.3775,413.375,413.3725,413.37,413.3675,413.365,413.3625;

Schedule:Day:Hourly, 619bebe7-5a79-488d-bc82-57b625c72c96, AnyNumber,413.36,413.35708,413.35417,413.35125,413.34833,413.34542,413.3425,413.33958,413.33667,413.33375,413.33083,413.32792,413.325,413.32208,413.31917,413.31625,413.31333,413.31042,413.3075,413.30458,413.30167,413.29875,413.29583,413.29292;

Schedule:Day:Hourly, bd6e7bac-b994-4664-9d41-20e0e3a420ec, AnyNumber,413.29,413.2875,413.285,413.2825,413.28,413.2775,413.275,413.2725,413.27,413.2675,413.265,413.2625,413.26,413.2575,413.255,413.2525,413.25,413.2475,413.245,413.2425,413.24,413.2375,413.235,413.2325;

Schedule:Day:Hourly, 68781367-4fb5-455b-9945-2cf271a29935, AnyNumber,413.23,413.22708,413.22417,413.22125,413.21833,413.21542,413.2125,413.20958,413.20667,413.20375,413.20083,413.19792,413.195,413.19208,413.18917,413.18625,413.18333,413.18042,413.1775,413.17458,413.17167,413.16875,413.16583,413.16292;

Schedule:Day:Hourly, 2ab6ed2c-e780-4661-9fec-9ab255515eff, AnyNumber,413.16,413.15708,413.15417,413.15125,413.14833,413.14542,413.1425,413.13958,413.13667,413.13375,413.13083,413.12792,413.125,413.12208,413.11917,413.11625,413.11333,413.11042,413.1075,413.10458,413.10167,413.09875,413.09583,413.09292;

Schedule:Day:Hourly, 929c5aed-f63b-43b3-b08c-55380f1817fc, AnyNumber,413.09,413.08708,413.08417,413.08125,413.07833,413.07542,413.0725,413.06958,413.06667,413.06375,413.06083,413.05792,413.055,413.05208,413.04917,413.04625,413.04333,413.04042,413.0375,413.03458,413.03167,413.02875,413.02583,413.02292;

Schedule:Day:Hourly, 09ee0ae7-9145-48b9-a706-8900dc6436c6, AnyNumber,413.02,413.01708,413.01417,413.01125,413.00833,413.00542,413.0025,412.99958,412.99667,412.99375,412.99083,412.98792,412.985,412.98208,412.97917,412.97625,412.97333,412.97042,412.9675,412.96458,412.96167,412.95875,412.95583,412.95292;

Schedule:Day:Hourly, 06ea6adc-c714-413c-b2b3-6aaa743c52a3, AnyNumber,412.95,412.94708,412.94417,412.94125,412.93833,412.93542,412.9325,412.92958,412.92667,412.92375,412.92083,412.91792,412.915,412.91208,412.90917,412.90625,412.90333,412.90042,412.8975,412.89458,412.89167,412.88875,412.88583,412.88292;

Schedule:Day:Hourly, 78f16d3f-4130-4261-a923-e69f9a6ff7fa, AnyNumber,412.88,412.87667,412.87333,412.87,412.86667,412.86333,412.86,412.85667,412.85333,412.85,412.84667,412.84333,412.84,412.83667,412.83333,412.83,412.82667,412.82333,412.82,412.81667,412.81333,412.81,412.80667,412.80333;

Schedule:Day:Hourly, d6a892ec-8543-4a89-a7a8-41f2f278a804, AnyNumber,412.8,412.79667,412.79333,412.79,412.78667,412.78333,412.78,412.77667,412.77333,412.77,412.76667,412.76333,412.76,412.75667,412.75333,412.75,412.74667,412.74333,412.74,412.73667,412.73333,412.73,412.72667,412.72333;

Schedule:Day:Hourly, 301bb745-4b01-410a-ad88-ee2eebcde194, AnyNumber,412.72,412.71708,412.71417,412.71125,412.70833,412.70542,412.7025,412.69958,412.69667,412.69375,412.69083,412.68792,412.685,412.68208,412.67917,412.67625,412.67333,412.67042,412.6675,412.66458,412.66167,412.65875,412.65583,412.65292;

Schedule:Day:Hourly, 808b6f06-d2ee-41ef-a57d-caeee661e9fb, AnyNumber,412.65,412.64667,412.64333,412.64,412.63667,412.63333,412.63,412.62667,412.62333,412.62,412.61667,412.61333,412.61,412.60667,412.60333,412.6,412.59667,412.59333,412.59,412.58667,412.58333,412.58,412.57667,412.57333;

Schedule:Day:Hourly, cfc0af06-d9b0-4593-a529-e1f06d744db9, AnyNumber,412.57,412.56667,412.56333,412.56,412.55667,412.55333,412.55,412.54667,412.54333,412.54,412.53667,412.53333,412.53,412.52667,412.52333,412.52,412.51667,412.51333,412.51,412.50667,412.50333,412.5,412.49667,412.49333;

Schedule:Day:Hourly, 27259fa4-9fd5-448c-b993-0b8969d4753d, AnyNumber,412.49,412.48667,412.48333,412.48,412.47667,412.47333,412.47,412.46667,412.46333,412.46,412.45667,412.45333,412.45,412.44667,412.44333,412.44,412.43667,412.43333,412.43,412.42667,412.42333,412.42,412.41667,412.41333;

Schedule:Day:Hourly, d087321c-8b65-48fa-8513-546173ec3961, AnyNumber,412.41,412.40625,412.4025,412.39875,412.395,412.39125,412.3875,412.38375,412.38,412.37625,412.3725,412.36875,412.365,412.36125,412.3575,412.35375,412.35,412.34625,412.3425,412.33875,412.335,412.33125,412.3275,412.32375;

Schedule:Day:Hourly, 65200755-695e-486a-9a62-7da19916dba2, AnyNumber,412.32,412.31667,412.31333,412.31,412.30667,412.30333,412.3,412.29667,412.29333,412.29,412.28667,412.28333,412.28,412.27667,412.27333,412.27,412.26667,412.26333,412.26,412.25667,412.25333,412.25,412.24667,412.24333;

Schedule:Day:Hourly, 35dd90f9-2151-4da3-bf19-25df745037d9, AnyNumber,412.24,412.23625,412.2325,412.22875,412.225,412.22125,412.2175,412.21375,412.21,412.20625,412.2025,412.19875,412.195,412.19125,412.1875,412.18375,412.18,412.17625,412.1725,412.16875,412.165,412.16125,412.1575,412.15375;

Schedule:Day:Hourly, 1a726701-78e8-4593-be43-05a39e42b7de, AnyNumber,412.15,412.14667,412.14333,412.14,412.13667,412.13333,412.13,412.12667,412.12333,412.12,412.11667,412.11333,412.11,412.10667,412.10333,412.1,412.09667,412.09333,412.09,412.08667,412.08333,412.08,412.07667,412.07333;

Schedule:Day:Hourly, 5e8fa53b-e2b6-4a12-93c2-9ea152445757, AnyNumber,412.07,412.06625,412.0625,412.05875,412.055,412.05125,412.0475,412.04375,412.04,412.03625,412.0325,412.02875,412.025,412.02125,412.0175,412.01375,412.01,412.00625,412.0025,411.99875,411.995,411.99125,411.9875,411.98375;

Schedule:Day:Hourly, 3671f9d2-75c8-47c6-afee-41956fe7bfa1, AnyNumber,411.98,411.97667,411.97333,411.97,411.96667,411.96333,411.96,411.95667,411.95333,411.95,411.94667,411.94333,411.94,411.93667,411.93333,411.93,411.92667,411.92333,411.92,411.91667,411.91333,411.91,411.90667,411.90333;

Schedule:Day:Hourly, 87f53927-61da-4900-8a63-7ea3305d7d7d, AnyNumber,411.9,411.89625,411.8925,411.88875,411.885,411.88125,411.8775,411.87375,411.87,411.86625,411.8625,411.85875,411.855,411.85125,411.8475,411.84375,411.84,411.83625,411.8325,411.82875,411.825,411.82125,411.8175,411.81375;

Schedule:Day:Hourly, ae0b5dec-091d-4f21-93e8-22288559c0bf, AnyNumber,411.81,411.80625,411.8025,411.79875,411.795,411.79125,411.7875,411.78375,411.78,411.77625,411.7725,411.76875,411.765,411.76125,411.7575,411.75375,411.75,411.74625,411.7425,411.73875,411.735,411.73125,411.7275,411.72375;

Schedule:Day:Hourly, aef25492-b87f-4d82-b67d-23d6c6d644bf, AnyNumber,411.72,411.71625,411.7125,411.70875,411.705,411.70125,411.6975,411.69375,411.69,411.68625,411.6825,411.67875,411.675,411.67125,411.6675,411.66375,411.66,411.65625,411.6525,411.64875,411.645,411.64125,411.6375,411.63375;

Schedule:Day:Hourly, 20376181-d302-49a0-bfbb-8d5b43d39b06, AnyNumber,411.63,411.62667,411.62333,411.62,411.61667,411.61333,411.61,411.60667,411.60333,411.6,411.59667,411.59333,411.59,411.58667,411.58333,411.58,411.57667,411.57333,411.57,411.56667,411.56333,411.56,411.55667,411.55333;

Schedule:Day:Hourly, 1b56fcba-49ad-44cd-a54e-b59a8e9bcd1d, AnyNumber,411.55,411.54625,411.5425,411.53875,411.535,411.53125,411.5275,411.52375,411.52,411.51625,411.5125,411.50875,411.505,411.50125,411.4975,411.49375,411.49,411.48625,411.4825,411.47875,411.475,411.47125,411.4675,411.46375;

Schedule:Day:Hourly, 343eb130-b6dc-438d-b47f-37711a95135d, AnyNumber,411.46,411.45625,411.4525,411.44875,411.445,411.44125,411.4375,411.43375,411.43,411.42625,411.4225,411.41875,411.415,411.41125,411.4075,411.40375,411.4,411.39625,411.3925,411.38875,411.385,411.38125,411.3775,411.37375;

Schedule:Day:Hourly, f46dfce9-b2be-4792-a899-fd93cd852920, AnyNumber,411.37,411.36625,411.3625,411.35875,411.355,411.35125,411.3475,411.34375,411.34,411.33625,411.3325,411.32875,411.325,411.32125,411.3175,411.31375,411.31,411.30625,411.3025,411.29875,411.295,411.29125,411.2875,411.28375;

Schedule:Day:Hourly, eed6ea54-86fa-4f91-8cae-9f50e9aa8d19, AnyNumber,411.28,411.27625,411.2725,411.26875,411.265,411.26125,411.2575,411.25375,411.25,411.24625,411.2425,411.23875,411.235,411.23125,411.2275,411.22375,411.22,411.21625,411.2125,411.20875,411.205,411.20125,411.1975,411.19375;

Schedule:Day:Hourly, 6ee3a681-84fd-4e54-a3a1-c2569edea116, AnyNumber,411.19,411.18667,411.18333,411.18,411.17667,411.17333,411.17,411.16667,411.16333,411.16,411.15667,411.15333,411.15,411.14667,411.14333,411.14,411.13667,411.13333,411.13,411.12667,411.12333,411.12,411.11667,411.11333;

Schedule:Day:Hourly, 0e37e018-47bc-4212-8840-6bc9eb30855d, AnyNumber,411.11,411.10625,411.1025,411.09875,411.095,411.09125,411.0875,411.08375,411.08,411.07625,411.0725,411.06875,411.065,411.06125,411.0575,411.05375,411.05,411.04625,411.0425,411.03875,411.035,411.03125,411.0275,411.02375;

Schedule:Day:Hourly, a054034b-dbe9-468b-b8e4-14be4568b2ed, AnyNumber,411.02,411.01625,411.0125,411.00875,411.005,411.00125,410.9975,410.99375,410.99,410.98625,410.9825,410.97875,410.975,410.97125,410.9675,410.96375,410.96,410.95625,410.9525,410.94875,410.945,410.94125,410.9375,410.93375;

Schedule:Day:Hourly, d1a4f39b-5a77-4f52-bdf5-55776476182b, AnyNumber,410.93,410.92667,410.92333,410.92,410.91667,410.91333,410.91,410.90667,410.90333,410.9,410.89667,410.89333,410.89,410.88667,410.88333,410.88,410.87667,410.87333,410.87,410.86667,410.86333,410.86,410.85667,410.85333;

Schedule:Day:Hourly, 6b50f310-a2be-4218-9967-3b56f4f017ba, AnyNumber,410.85,410.84625,410.8425,410.83875,410.835,410.83125,410.8275,410.82375,410.82,410.81625,410.8125,410.80875,410.805,410.80125,410.7975,410.79375,410.79,410.78625,410.7825,410.77875,410.775,410.77125,410.7675,410.76375;

Schedule:Day:Hourly, 85f2bd39-375f-4e73-8d05-0c3dbc2ee626, AnyNumber,410.76,410.75667,410.75333,410.75,410.74667,410.74333,410.74,410.73667,410.73333,410.73,410.72667,410.72333,410.72,410.71667,410.71333,410.71,410.70667,410.70333,410.7,410.69667,410.69333,410.69,410.68667,410.68333;

Schedule:Day:Hourly, d862b1c2-4aa2-4cf6-8dd7-95576954e065, AnyNumber,410.68,410.67667,410.67333,410.67,410.66667,410.66333,410.66,410.65667,410.65333,410.65,410.64667,410.64333,410.64,410.63667,410.63333,410.63,410.62667,410.62333,410.62,410.61667,410.61333,410.61,410.60667,410.60333;

Schedule:Day:Hourly, 3d80e703-76b6-4464-9fad-a98b1973f813, AnyNumber,410.6,410.59625,410.5925,410.58875,410.585,410.58125,410.5775,410.57375,410.57,410.56625,410.5625,410.55875,410.555,410.55125,410.5475,410.54375,410.54,410.53625,410.5325,410.52875,410.525,410.52125,410.5175,410.51375;

Schedule:Day:Hourly, a1b390f7-e89f-455c-ae73-8339a4240309, AnyNumber,410.51,410.50667,410.50333,410.5,410.49667,410.49333,410.49,410.48667,410.48333,410.48,410.47667,410.47333,410.47,410.46667,410.46333,410.46,410.45667,410.45333,410.45,410.44667,410.44333,410.44,410.43667,410.43333;

Schedule:Day:Hourly, b356f7cf-dc52-4d4e-ba6b-e4a60951b457, AnyNumber,410.43,410.42667,410.42333,410.42,410.41667,410.41333,410.41,410.40667,410.40333,410.4,410.39667,410.39333,410.39,410.38667,410.38333,410.38,410.37667,410.37333,410.37,410.36667,410.36333,410.36,410.35667,410.35333;

Schedule:Day:Hourly, 1721045d-22f1-40cc-9946-97f91cee0d72, AnyNumber,410.35,410.34708,410.34417,410.34125,410.33833,410.33542,410.3325,410.32958,410.32667,410.32375,410.32083,410.31792,410.315,410.31208,410.30917,410.30625,410.30333,410.30042,410.2975,410.29458,410.29167,410.28875,410.28583,410.28292;

Schedule:Day:Hourly, 84c2215d-517b-4dfd-9d7d-2eb90054a16e, AnyNumber,410.28,410.27667,410.27333,410.27,410.26667,410.26333,410.26,410.25667,410.25333,410.25,410.24667,410.24333,410.24,410.23667,410.23333,410.23,410.22667,410.22333,410.22,410.21667,410.21333,410.21,410.20667,410.20333;

Schedule:Day:Hourly, 3497acf4-7ea4-4307-bc19-590118b3ca1f, AnyNumber,410.2,410.19708,410.19417,410.19125,410.18833,410.18542,410.1825,410.17958,410.17667,410.17375,410.17083,410.16792,410.165,410.16208,410.15917,410.15625,410.15333,410.15042,410.1475,410.14458,410.14167,410.13875,410.13583,410.13292;

Schedule:Day:Hourly, 3be11c90-d528-4b27-bb51-84d7512002e6, AnyNumber,410.13,410.12708,410.12417,410.12125,410.11833,410.11542,410.1125,410.10958,410.10667,410.10375,410.10083,410.09792,410.095,410.09208,410.08917,410.08625,410.08333,410.08042,410.0775,410.07458,410.07167,410.06875,410.06583,410.06292;

Schedule:Day:Hourly, 5b77f50d-51f8-4c16-a257-9bffac475d81, AnyNumber,410.06,410.05667,410.05333,410.05,410.04667,410.04333,410.04,410.03667,410.03333,410.03,410.02667,410.02333,410.02,410.01667,410.01333,410.01,410.00667,410.00333,410,409.99667,409.99333,409.99,409.98667,409.98333;

Schedule:Day:Hourly, 47cf4ccf-6fad-4bbf-b55f-4d23dd486753, AnyNumber,409.98,409.9775,409.975,409.9725,409.97,409.9675,409.965,409.9625,409.96,409.9575,409.955,409.9525,409.95,409.9475,409.945,409.9425,409.94,409.9375,409.935,409.9325,409.93,409.9275,409.925,409.9225;

Schedule:Day:Hourly, 303a41d6-10bb-458c-a83f-c2b4388fb767, AnyNumber,409.92,409.91708,409.91417,409.91125,409.90833,409.90542,409.9025,409.89958,409.89667,409.89375,409.89083,409.88792,409.885,409.88208,409.87917,409.87625,409.87333,409.87042,409.8675,409.86458,409.86167,409.85875,409.85583,409.85292;

Schedule:Day:Hourly, 3ee0c7e3-2b1e-4c45-9ba6-5b01aec2e782, AnyNumber,409.85,409.8475,409.845,409.8425,409.84,409.8375,409.835,409.8325,409.83,409.8275,409.825,409.8225,409.82,409.8175,409.815,409.8125,409.81,409.8075,409.805,409.8025,409.8,409.7975,409.795,409.7925;

Schedule:Day:Hourly, 3af8b376-db9f-4279-9f56-4a5d4180f725, AnyNumber,409.79,409.7875,409.785,409.7825,409.78,409.7775,409.775,409.7725,409.77,409.7675,409.765,409.7625,409.76,409.7575,409.755,409.7525,409.75,409.7475,409.745,409.7425,409.74,409.7375,409.735,409.7325;

Schedule:Day:Hourly, 55422840-973f-4689-a975-22432171aeb2, AnyNumber,409.73,409.7275,409.725,409.7225,409.72,409.7175,409.715,409.7125,409.71,409.7075,409.705,409.7025,409.7,409.6975,409.695,409.6925,409.69,409.6875,409.685,409.6825,409.68,409.6775,409.675,409.6725;

Schedule:Day:Hourly, 023da310-b5e8-4aac-838d-a8fbc31ff002, AnyNumber,409.67,409.6675,409.665,409.6625,409.66,409.6575,409.655,409.6525,409.65,409.6475,409.645,409.6425,409.64,409.6375,409.635,409.6325,409.63,409.6275,409.625,409.6225,409.62,409.6175,409.615,409.6125;

Schedule:Day:Hourly, 7c50b2f2-8945-49e7-bcbd-74fe32e9f263, AnyNumber,409.61,409.60792,409.60583,409.60375,409.60167,409.59958,409.5975,409.59542,409.59333,409.59125,409.58917,409.58708,409.585,409.58292,409.58083,409.57875,409.57667,409.57458,409.5725,409.57042,409.56833,409.56625,409.56417,409.56208;

Schedule:Day:Hourly, 50f8db64-ae25-4610-b189-0bf895ae0cf7, AnyNumber,409.56,409.5575,409.555,409.5525,409.55,409.5475,409.545,409.5425,409.54,409.5375,409.535,409.5325,409.53,409.5275,409.525,409.5225,409.52,409.5175,409.515,409.5125,409.51,409.5075,409.505,409.5025;

Schedule:Day:Hourly, b5b7f10e-698c-4002-9933-4387b5512ac9, AnyNumber,409.5,409.49833,409.49667,409.495,409.49333,409.49167,409.49,409.48833,409.48667,409.485,409.48333,409.48167,409.48,409.47833,409.47667,409.475,409.47333,409.47167,409.47,409.46833,409.46667,409.465,409.46333,409.46167;

Schedule:Day:Hourly, fae931b3-fb74-43e6-ab4f-c1ae461434ca, AnyNumber,409.46,409.45792,409.45583,409.45375,409.45167,409.44958,409.4475,409.44542,409.44333,409.44125,409.43917,409.43708,409.435,409.43292,409.43083,409.42875,409.42667,409.42458,409.4225,409.42042,409.41833,409.41625,409.41417,409.41208;

Schedule:Day:Hourly, 0936f3da-d47d-4d9c-b7bb-2b78fb2cdc5b, AnyNumber,409.41,409.40833,409.40667,409.405,409.40333,409.40167,409.4,409.39833,409.39667,409.395,409.39333,409.39167,409.39,409.38833,409.38667,409.385,409.38333,409.38167,409.38,409.37833,409.37667,409.375,409.37333,409.37167;

Schedule:Day:Hourly, f3cddcda-48ea-41ab-90c8-7380880db08f, AnyNumber,409.37,409.36833,409.36667,409.365,409.36333,409.36167,409.36,409.35833,409.35667,409.355,409.35333,409.35167,409.35,409.34833,409.34667,409.345,409.34333,409.34167,409.34,409.33833,409.33667,409.335,409.33333,409.33167;

Schedule:Day:Hourly, 6bc79b09-74a5-45ab-bc75-ed2af7456f1e, AnyNumber,409.33,409.32833,409.32667,409.325,409.32333,409.32167,409.32,409.31833,409.31667,409.315,409.31333,409.31167,409.31,409.30833,409.30667,409.305,409.30333,409.30167,409.3,409.29833,409.29667,409.295,409.29333,409.29167;

Schedule:Day:Hourly, 331e3046-bad4-482f-974d-b6af87d9f926, AnyNumber,409.29,409.28833,409.28667,409.285,409.28333,409.28167,409.28,409.27833,409.27667,409.275,409.27333,409.27167,409.27,409.26833,409.26667,409.265,409.26333,409.26167,409.26,409.25833,409.25667,409.255,409.25333,409.25167;

Schedule:Day:Hourly, 738716d0-f91d-49ae-bb6a-8999c1f6652f, AnyNumber,409.25,409.24875,409.2475,409.24625,409.245,409.24375,409.2425,409.24125,409.24,409.23875,409.2375,409.23625,409.235,409.23375,409.2325,409.23125,409.23,409.22875,409.2275,409.22625,409.225,409.22375,409.2225,409.22125;

Schedule:Day:Hourly, b2ea4f7b-a363-419f-87ac-864be8ae0a2f, AnyNumber,409.22,409.21917,409.21833,409.2175,409.21667,409.21583,409.215,409.21417,409.21333,409.2125,409.21167,409.21083,409.21,409.20917,409.20833,409.2075,409.20667,409.20583,409.205,409.20417,409.20333,409.2025,409.20167,409.20083;

Schedule:Day:Hourly, 4c0dffd9-37b0-41db-85a2-e69df099fce8, AnyNumber,409.2,409.19875,409.1975,409.19625,409.195,409.19375,409.1925,409.19125,409.19,409.18875,409.1875,409.18625,409.185,409.18375,409.1825,409.18125,409.18,409.17875,409.1775,409.17625,409.175,409.17375,409.1725,409.17125;

Schedule:Day:Hourly, e412d928-8223-4915-9857-08e25e146feb, AnyNumber,409.17,409.16917,409.16833,409.1675,409.16667,409.16583,409.165,409.16417,409.16333,409.1625,409.16167,409.16083,409.16,409.15917,409.15833,409.1575,409.15667,409.15583,409.155,409.15417,409.15333,409.1525,409.15167,409.15083;

Schedule:Day:Hourly, 6484a57c-e10f-41ef-9496-7e989e6cb385, AnyNumber,409.15,409.14917,409.14833,409.1475,409.14667,409.14583,409.145,409.14417,409.14333,409.1425,409.14167,409.14083,409.14,409.13917,409.13833,409.1375,409.13667,409.13583,409.135,409.13417,409.13333,409.1325,409.13167,409.13083;

Schedule:Day:Hourly, 9b4dadd9-1ffc-4ba7-94ba-21f85c64516e, AnyNumber,409.13,409.12917,409.12833,409.1275,409.12667,409.12583,409.125,409.12417,409.12333,409.1225,409.12167,409.12083,409.12,409.11917,409.11833,409.1175,409.11667,409.11583,409.115,409.11417,409.11333,409.1125,409.11167,409.11083;

Schedule:Day:Hourly, 08ca0df2-97f0-431c-83d8-5662387a4d31, AnyNumber,409.11,409.10958,409.10917,409.10875,409.10833,409.10792,409.1075,409.10708,409.10667,409.10625,409.10583,409.10542,409.105,409.10458,409.10417,409.10375,409.10333,409.10292,409.1025,409.10208,409.10167,409.10125,409.10083,409.10042;

Schedule:Day:Hourly, e036b0e0-8434-4d04-9a64-da06cb29905b, AnyNumber,409.1,409.09958,409.09917,409.09875,409.09833,409.09792,409.0975,409.09708,409.09667,409.09625,409.09583,409.09542,409.095,409.09458,409.09417,409.09375,409.09333,409.09292,409.0925,409.09208,409.09167,409.09125,409.09083,409.09042;

Schedule:Day:Hourly, 11a6fbf1-2e31-4e1f-b43a-dad2c58aa870, AnyNumber,409.09,409.08958,409.08917,409.08875,409.08833,409.08792,409.0875,409.08708,409.08667,409.08625,409.08583,409.08542,409.085,409.08458,409.08417,409.08375,409.08333,409.08292,409.0825,409.08208,409.08167,409.08125,409.08083,409.08042;

Schedule:Day:Hourly, 94c4dc59-5475-43c5-9504-1adb1893f210, AnyNumber,409.08,409.08,409.08,409.08,409.08,409.08,409.08,409.08,409.08,409.08,409.08,409.08,409.08,409.08,409.08,409.08,409.08,409.08,409.08,409.08,409.08,409.08,409.08,409.08;

Schedule:Day:Hourly, 7e7754ef-b7c0-41c3-a802-2d65087bcf9c, AnyNumber,409.08,409.08042,409.08083,409.08125,409.08167,409.08208,409.0825,409.08292,409.08333,409.08375,409.08417,409.08458,409.085,409.08542,409.08583,409.08625,409.08667,409.08708,409.0875,409.08792,409.08833,409.08875,409.08917,409.08958;

Schedule:Day:Hourly, 752752a1-d938-49d9-82ae-d44e767abc9e, AnyNumber,409.09,409.09042,409.09083,409.09125,409.09167,409.09208,409.0925,409.09292,409.09333,409.09375,409.09417,409.09458,409.095,409.09542,409.09583,409.09625,409.09667,409.09708,409.0975,409.09792,409.09833,409.09875,409.09917,409.09958;

Schedule:Day:Hourly, 70398374-c34a-4984-a2c2-91c053ce5212, AnyNumber,409.1,409.10042,409.10083,409.10125,409.10167,409.10208,409.1025,409.10292,409.10333,409.10375,409.10417,409.10458,409.105,409.10542,409.10583,409.10625,409.10667,409.10708,409.1075,409.10792,409.10833,409.10875,409.10917,409.10958;

Schedule:Day:Hourly, 0d984e7d-b820-4dbf-9637-b08e2c1a544b, AnyNumber,409.11,409.11042,409.11083,409.11125,409.11167,409.11208,409.1125,409.11292,409.11333,409.11375,409.11417,409.11458,409.115,409.11542,409.11583,409.11625,409.11667,409.11708,409.1175,409.11792,409.11833,409.11875,409.11917,409.11958;

Schedule:Day:Hourly, 67480a01-a98b-4de1-9d1a-aca748770afb, AnyNumber,409.12,409.12083,409.12167,409.1225,409.12333,409.12417,409.125,409.12583,409.12667,409.1275,409.12833,409.12917,409.13,409.13083,409.13167,409.1325,409.13333,409.13417,409.135,409.13583,409.13667,409.1375,409.13833,409.13917;

Schedule:Day:Hourly, 12488d14-31a1-413e-8567-5afc693dd656, AnyNumber,409.14,409.14083,409.14167,409.1425,409.14333,409.14417,409.145,409.14583,409.14667,409.1475,409.14833,409.14917,409.15,409.15083,409.15167,409.1525,409.15333,409.15417,409.155,409.15583,409.15667,409.1575,409.15833,409.15917;

Schedule:Day:Hourly, ce01b87c-afb4-4269-960a-cbec1823ac8c, AnyNumber,409.16,409.16125,409.1625,409.16375,409.165,409.16625,409.1675,409.16875,409.17,409.17125,409.1725,409.17375,409.175,409.17625,409.1775,409.17875,409.18,409.18125,409.1825,409.18375,409.185,409.18625,409.1875,409.18875;

Schedule:Day:Hourly, f1538e2d-92d6-46f3-9b29-c2fbd704318d, AnyNumber,409.19,409.19083,409.19167,409.1925,409.19333,409.19417,409.195,409.19583,409.19667,409.1975,409.19833,409.19917,409.2,409.20083,409.20167,409.2025,409.20333,409.20417,409.205,409.20583,409.20667,409.2075,409.20833,409.20917;

Schedule:Day:Hourly, 9dc7d6f8-0e6e-4377-8bbe-e34c68ca7b99, AnyNumber,409.21,409.21125,409.2125,409.21375,409.215,409.21625,409.2175,409.21875,409.22,409.22125,409.2225,409.22375,409.225,409.22625,409.2275,409.22875,409.23,409.23125,409.2325,409.23375,409.235,409.23625,409.2375,409.23875;

Schedule:Day:Hourly, 8d248bf4-9ea1-4df4-9c1e-7b89fe92e45c, AnyNumber,409.24,409.24125,409.2425,409.24375,409.245,409.24625,409.2475,409.24875,409.25,409.25125,409.2525,409.25375,409.255,409.25625,409.2575,409.25875,409.26,409.26125,409.2625,409.26375,409.265,409.26625,409.2675,409.26875;

Schedule:Day:Hourly, 07ec848f-f7d7-4be7-aa88-a46249a1b962, AnyNumber,409.27,409.27167,409.27333,409.275,409.27667,409.27833,409.28,409.28167,409.28333,409.285,409.28667,409.28833,409.29,409.29167,409.29333,409.295,409.29667,409.29833,409.3,409.30167,409.30333,409.305,409.30667,409.30833;

Schedule:Day:Hourly, 154058b4-eab1-4de4-83a3-ce129cfe8fe8, AnyNumber,409.31,409.31167,409.31333,409.315,409.31667,409.31833,409.32,409.32167,409.32333,409.325,409.32667,409.32833,409.33,409.33167,409.33333,409.335,409.33667,409.33833,409.34,409.34167,409.34333,409.345,409.34667,409.34833;

Schedule:Day:Hourly, 0ff234ba-8c3d-4343-ba74-5f70bd7d253e, AnyNumber,409.35,409.35167,409.35333,409.355,409.35667,409.35833,409.36,409.36167,409.36333,409.365,409.36667,409.36833,409.37,409.37167,409.37333,409.375,409.37667,409.37833,409.38,409.38167,409.38333,409.385,409.38667,409.38833;

Schedule:Day:Hourly, ec6aa8d2-7448-4d88-abd5-dd30512500e9, AnyNumber,409.39,409.39167,409.39333,409.395,409.39667,409.39833,409.4,409.40167,409.40333,409.405,409.40667,409.40833,409.41,409.41167,409.41333,409.415,409.41667,409.41833,409.42,409.42167,409.42333,409.425,409.42667,409.42833;

Schedule:Day:Hourly, 5f626f3d-4f3e-4363-b901-74b2f05396ec, AnyNumber,409.43,409.43167,409.43333,409.435,409.43667,409.43833,409.44,409.44167,409.44333,409.445,409.44667,409.44833,409.45,409.45167,409.45333,409.455,409.45667,409.45833,409.46,409.46167,409.46333,409.465,409.46667,409.46833;

Schedule:Day:Hourly, 05d95b52-8bce-4b22-b6d5-b772cc11cb3e, AnyNumber,409.47,409.47208,409.47417,409.47625,409.47833,409.48042,409.4825,409.48458,409.48667,409.48875,409.49083,409.49292,409.495,409.49708,409.49917,409.50125,409.50333,409.50542,409.5075,409.50958,409.51167,409.51375,409.51583,409.51792;

Schedule:Day:Hourly, 8d5eb76d-46db-49bd-9ef4-fac29be9741a, AnyNumber,409.52,409.52208,409.52417,409.52625,409.52833,409.53042,409.5325,409.53458,409.53667,409.53875,409.54083,409.54292,409.545,409.54708,409.54917,409.55125,409.55333,409.55542,409.5575,409.55958,409.56167,409.56375,409.56583,409.56792;

Schedule:Day:Hourly, e179b865-dec6-40be-bb36-89ccff2d788d, AnyNumber,409.57,409.57208,409.57417,409.57625,409.57833,409.58042,409.5825,409.58458,409.58667,409.58875,409.59083,409.59292,409.595,409.59708,409.59917,409.60125,409.60333,409.60542,409.6075,409.60958,409.61167,409.61375,409.61583,409.61792;

Schedule:Day:Hourly, 53262f99-aaf0-4ca3-899d-0d16384b1fc3, AnyNumber,409.62,409.62208,409.62417,409.62625,409.62833,409.63042,409.6325,409.63458,409.63667,409.63875,409.64083,409.64292,409.645,409.64708,409.64917,409.65125,409.65333,409.65542,409.6575,409.65958,409.66167,409.66375,409.66583,409.66792;

Schedule:Day:Hourly, 3dad447a-d8dd-4f58-b8c7-ff8047ea9260, AnyNumber,409.67,409.6725,409.675,409.6775,409.68,409.6825,409.685,409.6875,409.69,409.6925,409.695,409.6975,409.7,409.7025,409.705,409.7075,409.71,409.7125,409.715,409.7175,409.72,409.7225,409.725,409.7275;

Schedule:Day:Hourly, 61a38233-ed84-4b75-adbb-0cea7cae8c4c, AnyNumber,409.73,409.73208,409.73417,409.73625,409.73833,409.74042,409.7425,409.74458,409.74667,409.74875,409.75083,409.75292,409.755,409.75708,409.75917,409.76125,409.76333,409.76542,409.7675,409.76958,409.77167,409.77375,409.77583,409.77792;

Schedule:Day:Hourly, e6787511-8c5e-4ca3-b130-64d07465e73d, AnyNumber,409.78,409.7825,409.785,409.7875,409.79,409.7925,409.795,409.7975,409.8,409.8025,409.805,409.8075,409.81,409.8125,409.815,409.8175,409.82,409.8225,409.825,409.8275,409.83,409.8325,409.835,409.8375;

Schedule:Day:Hourly, 60e7d710-c575-4cdf-bbac-689423d6cd26, AnyNumber,409.84,409.8425,409.845,409.8475,409.85,409.8525,409.855,409.8575,409.86,409.8625,409.865,409.8675,409.87,409.8725,409.875,409.8775,409.88,409.8825,409.885,409.8875,409.89,409.8925,409.895,409.8975;

Schedule:Day:Hourly, 0f3050e1-72af-4350-9e40-f9582ff9e373, AnyNumber,409.9,409.9025,409.905,409.9075,409.91,409.9125,409.915,409.9175,409.92,409.9225,409.925,409.9275,409.93,409.9325,409.935,409.9375,409.94,409.9425,409.945,409.9475,409.95,409.9525,409.955,409.9575;

Schedule:Day:Hourly, 7036d72b-ffae-4a8f-821b-f478922d18a0, AnyNumber,409.96,409.96292,409.96583,409.96875,409.97167,409.97458,409.9775,409.98042,409.98333,409.98625,409.98917,409.99208,409.995,409.99792,410.00083,410.00375,410.00667,410.00958,410.0125,410.01542,410.01833,410.02125,410.02417,410.02708;

Schedule:Day:Hourly, b14aa87d-2436-45c2-a95f-42015572791d, AnyNumber,410.03,410.0325,410.035,410.0375,410.04,410.0425,410.045,410.0475,410.05,410.0525,410.055,410.0575,410.06,410.0625,410.065,410.0675,410.07,410.0725,410.075,410.0775,410.08,410.0825,410.085,410.0875;

Schedule:Day:Hourly, f76811ea-365d-49fc-96d9-06ccb304eb43, AnyNumber,410.09,410.09292,410.09583,410.09875,410.10167,410.10458,410.1075,410.11042,410.11333,410.11625,410.11917,410.12208,410.125,410.12792,410.13083,410.13375,410.13667,410.13958,410.1425,410.14542,410.14833,410.15125,410.15417,410.15708;

Schedule:Day:Hourly, a1919d39-2dc1-44a1-b056-0fae0596b9d7, AnyNumber,410.16,410.16292,410.16583,410.16875,410.17167,410.17458,410.1775,410.18042,410.18333,410.18625,410.18917,410.19208,410.195,410.19792,410.20083,410.20375,410.20667,410.20958,410.2125,410.21542,410.21833,410.22125,410.22417,410.22708;

Schedule:Day:Hourly, 76b32eb8-9f2b-41f9-b1df-b9a229bfbdf1, AnyNumber,410.23,410.2325,410.235,410.2375,410.24,410.2425,410.245,410.2475,410.25,410.2525,410.255,410.2575,410.26,410.2625,410.265,410.2675,410.27,410.2725,410.275,410.2775,410.28,410.2825,410.285,410.2875;

Schedule:Day:Hourly, c18f4c7f-ff83-48b2-bc1d-53c95b5da2ca, AnyNumber,410.29,410.29292,410.29583,410.29875,410.30167,410.30458,410.3075,410.31042,410.31333,410.31625,410.31917,410.32208,410.325,410.32792,410.33083,410.33375,410.33667,410.33958,410.3425,410.34542,410.34833,410.35125,410.35417,410.35708;

Schedule:Day:Hourly, f62b63e3-77da-4417-b09e-9f07a8445b62, AnyNumber,410.36,410.36333,410.36667,410.37,410.37333,410.37667,410.38,410.38333,410.38667,410.39,410.39333,410.39667,410.4,410.40333,410.40667,410.41,410.41333,410.41667,410.42,410.42333,410.42667,410.43,410.43333,410.43667;

Schedule:Day:Hourly, fa22479a-b8c6-4b58-86c0-6d40b11c96e7, AnyNumber,410.44,410.44292,410.44583,410.44875,410.45167,410.45458,410.4575,410.46042,410.46333,410.46625,410.46917,410.47208,410.475,410.47792,410.48083,410.48375,410.48667,410.48958,410.4925,410.49542,410.49833,410.50125,410.50417,410.50708;

Schedule:Day:Hourly, 4520146f-f5e5-4188-b60d-ce68ef5696ea, AnyNumber,410.51,410.51292,410.51583,410.51875,410.52167,410.52458,410.5275,410.53042,410.53333,410.53625,410.53917,410.54208,410.545,410.54792,410.55083,410.55375,410.55667,410.55958,410.5625,410.56542,410.56833,410.57125,410.57417,410.57708;

Schedule:Day:Hourly, 7bb6cbd7-1fd9-4179-a5df-8d49533b1cc3, AnyNumber,410.58,410.58292,410.58583,410.58875,410.59167,410.59458,410.5975,410.60042,410.60333,410.60625,410.60917,410.61208,410.615,410.61792,410.62083,410.62375,410.62667,410.62958,410.6325,410.63542,410.63833,410.64125,410.64417,410.64708;

Schedule:Day:Hourly, 0e4e210f-32a0-4139-bf24-42de9e6bce4f, AnyNumber,410.65,410.65333,410.65667,410.66,410.66333,410.66667,410.67,410.67333,410.67667,410.68,410.68333,410.68667,410.69,410.69333,410.69667,410.7,410.70333,410.70667,410.71,410.71333,410.71667,410.72,410.72333,410.72667;

Schedule:Day:Hourly, d6165e50-f949-44f1-a0a5-a0fee5919031, AnyNumber,410.73,410.73292,410.73583,410.73875,410.74167,410.74458,410.7475,410.75042,410.75333,410.75625,410.75917,410.76208,410.765,410.76792,410.77083,410.77375,410.77667,410.77958,410.7825,410.78542,410.78833,410.79125,410.79417,410.79708;

Schedule:Day:Hourly, a7c200c6-ba14-42c8-910d-72824195fec0, AnyNumber,410.8,410.80333,410.80667,410.81,410.81333,410.81667,410.82,410.82333,410.82667,410.83,410.83333,410.83667,410.84,410.84333,410.84667,410.85,410.85333,410.85667,410.86,410.86333,410.86667,410.87,410.87333,410.87667;

Schedule:Day:Hourly, 7cb0599f-68f2-471c-89ef-5dd944b5651a, AnyNumber,410.88,410.88292,410.88583,410.88875,410.89167,410.89458,410.8975,410.90042,410.90333,410.90625,410.90917,410.91208,410.915,410.91792,410.92083,410.92375,410.92667,410.92958,410.9325,410.93542,410.93833,410.94125,410.94417,410.94708;

Schedule:Day:Hourly, 6c040a0c-cc42-43bf-af6e-de7189fd9ae5, AnyNumber,410.95,410.95333,410.95667,410.96,410.96333,410.96667,410.97,410.97333,410.97667,410.98,410.98333,410.98667,410.99,410.99333,410.99667,411,411.00333,411.00667,411.01,411.01333,411.01667,411.02,411.02333,411.02667;

Schedule:Day:Hourly, 8fe3f9b8-21a5-4684-9193-7cf8fca85db5, AnyNumber,411.03,411.03292,411.03583,411.03875,411.04167,411.04458,411.0475,411.05042,411.05333,411.05625,411.05917,411.06208,411.065,411.06792,411.07083,411.07375,411.07667,411.07958,411.0825,411.08542,411.08833,411.09125,411.09417,411.09708;

Schedule:Day:Hourly, 5b4d7dcb-2f5e-4aad-84aa-c663d4091dd5, AnyNumber,411.1,411.10333,411.10667,411.11,411.11333,411.11667,411.12,411.12333,411.12667,411.13,411.13333,411.13667,411.14,411.14333,411.14667,411.15,411.15333,411.15667,411.16,411.16333,411.16667,411.17,411.17333,411.17667;

Schedule:Day:Hourly, f9ab4c0e-a8bd-4ebe-8eca-efdfacc7ac67, AnyNumber,411.18,411.18333,411.18667,411.19,411.19333,411.19667,411.2,411.20333,411.20667,411.21,411.21333,411.21667,411.22,411.22333,411.22667,411.23,411.23333,411.23667,411.24,411.24333,411.24667,411.25,411.25333,411.25667;

Schedule:Day:Hourly, 84605465-2225-4d74-bef4-8a1dde7d61bf, AnyNumber,411.26,411.26292,411.26583,411.26875,411.27167,411.27458,411.2775,411.28042,411.28333,411.28625,411.28917,411.29208,411.295,411.29792,411.30083,411.30375,411.30667,411.30958,411.3125,411.31542,411.31833,411.32125,411.32417,411.32708;

Schedule:Day:Hourly, 9eb7304c-a7f2-4f9b-805c-645346da7ca6, AnyNumber,411.33,411.33333,411.33667,411.34,411.34333,411.34667,411.35,411.35333,411.35667,411.36,411.36333,411.36667,411.37,411.37333,411.37667,411.38,411.38333,411.38667,411.39,411.39333,411.39667,411.4,411.40333,411.40667;

Schedule:Day:Hourly, bfaa7f1b-f1ba-47d8-92e0-f23c05ae5992, AnyNumber,411.41,411.41333,411.41667,411.42,411.42333,411.42667,411.43,411.43333,411.43667,411.44,411.44333,411.44667,411.45,411.45333,411.45667,411.46,411.46333,411.46667,411.47,411.47333,411.47667,411.48,411.48333,411.48667;

Schedule:Day:Hourly, f237d7a5-7ce9-478e-bcec-b0df69f952de, AnyNumber,411.49,411.49292,411.49583,411.49875,411.50167,411.50458,411.5075,411.51042,411.51333,411.51625,411.51917,411.52208,411.525,411.52792,411.53083,411.53375,411.53667,411.53958,411.5425,411.54542,411.54833,411.55125,411.55417,411.55708;

Schedule:Day:Hourly, 2d2174a6-0f1d-4250-b518-8297f8785cdb, AnyNumber,411.56,411.56333,411.56667,411.57,411.57333,411.57667,411.58,411.58333,411.58667,411.59,411.59333,411.59667,411.6,411.60333,411.60667,411.61,411.61333,411.61667,411.62,411.62333,411.62667,411.63,411.63333,411.63667;

Schedule:Day:Hourly, 198b343e-2557-49cc-b66a-567d42c4b55a, AnyNumber,411.64,411.64292,411.64583,411.64875,411.65167,411.65458,411.6575,411.66042,411.66333,411.66625,411.66917,411.67208,411.675,411.67792,411.68083,411.68375,411.68667,411.68958,411.6925,411.69542,411.69833,411.70125,411.70417,411.70708;

Schedule:Day:Hourly, d840034d-0aa7-47be-b2c1-34f1c3b22f5f, AnyNumber,411.71,411.71333,411.71667,411.72,411.72333,411.72667,411.73,411.73333,411.73667,411.74,411.74333,411.74667,411.75,411.75333,411.75667,411.76,411.76333,411.76667,411.77,411.77333,411.77667,411.78,411.78333,411.78667;

Schedule:Day:Hourly, 59be6511-05db-4500-a954-fdf3542b449a, AnyNumber,411.79,411.79292,411.79583,411.79875,411.80167,411.80458,411.8075,411.81042,411.81333,411.81625,411.81917,411.82208,411.825,411.82792,411.83083,411.83375,411.83667,411.83958,411.8425,411.84542,411.84833,411.85125,411.85417,411.85708;

Schedule:Day:Hourly, 8f998cba-4986-46b3-80e4-f4d95a1a9682, AnyNumber,411.86,411.86292,411.86583,411.86875,411.87167,411.87458,411.8775,411.88042,411.88333,411.88625,411.88917,411.89208,411.895,411.89792,411.90083,411.90375,411.90667,411.90958,411.9125,411.91542,411.91833,411.92125,411.92417,411.92708;

Schedule:Day:Hourly, b971c479-f38d-4de7-a3f8-435cadee2658, AnyNumber,411.93,411.93333,411.93667,411.94,411.94333,411.94667,411.95,411.95333,411.95667,411.96,411.96333,411.96667,411.97,411.97333,411.97667,411.98,411.98333,411.98667,411.99,411.99333,411.99667,412,412.00333,412.00667;

Schedule:Day:Hourly, 4257f9be-ff69-4882-90ea-cb7190725b35, AnyNumber,412.01,412.01292,412.01583,412.01875,412.02167,412.02458,412.0275,412.03042,412.03333,412.03625,412.03917,412.04208,412.045,412.04792,412.05083,412.05375,412.05667,412.05958,412.0625,412.06542,412.06833,412.07125,412.07417,412.07708;

Schedule:Day:Hourly, 9f633cd8-d292-4496-a17e-c396063d4958, AnyNumber,412.08,412.08292,412.08583,412.08875,412.09167,412.09458,412.0975,412.10042,412.10333,412.10625,412.10917,412.11208,412.115,412.11792,412.12083,412.12375,412.12667,412.12958,412.1325,412.13542,412.13833,412.14125,412.14417,412.14708;

Schedule:Day:Hourly, 0038dc67-0c10-46ef-8037-a8fc3260d3b0, AnyNumber,412.15,412.15292,412.15583,412.15875,412.16167,412.16458,412.1675,412.17042,412.17333,412.17625,412.17917,412.18208,412.185,412.18792,412.19083,412.19375,412.19667,412.19958,412.2025,412.20542,412.20833,412.21125,412.21417,412.21708;

Schedule:Day:Hourly, 49c58264-ba5c-42ee-96d1-43ef4c792f5c, AnyNumber,412.22,412.22292,412.22583,412.22875,412.23167,412.23458,412.2375,412.24042,412.24333,412.24625,412.24917,412.25208,412.255,412.25792,412.26083,412.26375,412.26667,412.26958,412.2725,412.27542,412.27833,412.28125,412.28417,412.28708;

Schedule:Day:Hourly, abf75e50-d682-40fc-9538-4e842d0f2670, AnyNumber,412.29,412.29292,412.29583,412.29875,412.30167,412.30458,412.3075,412.31042,412.31333,412.31625,412.31917,412.32208,412.325,412.32792,412.33083,412.33375,412.33667,412.33958,412.3425,412.34542,412.34833,412.35125,412.35417,412.35708;

Schedule:Day:Hourly, f2563cb7-eb7f-4787-9672-8b2d6e161ecf, AnyNumber,412.36,412.36292,412.36583,412.36875,412.37167,412.37458,412.3775,412.38042,412.38333,412.38625,412.38917,412.39208,412.395,412.39792,412.40083,412.40375,412.40667,412.40958,412.4125,412.41542,412.41833,412.42125,412.42417,412.42708;

Schedule:Day:Hourly, 8f4f059a-e179-4949-b2bf-645aa8cb8685, AnyNumber,412.43,412.43292,412.43583,412.43875,412.44167,412.44458,412.4475,412.45042,412.45333,412.45625,412.45917,412.46208,412.465,412.46792,412.47083,412.47375,412.47667,412.47958,412.4825,412.48542,412.48833,412.49125,412.49417,412.49708;

Schedule:Day:Hourly, ed08fcdf-214b-4ae7-902c-f81fd7c196d8, AnyNumber,412.5,412.5025,412.505,412.5075,412.51,412.5125,412.515,412.5175,412.52,412.5225,412.525,412.5275,412.53,412.5325,412.535,412.5375,412.54,412.5425,412.545,412.5475,412.55,412.5525,412.555,412.5575;

Schedule:Day:Hourly, b1df5714-efc5-4019-aba5-1843959eaa08, AnyNumber,412.56,412.56292,412.56583,412.56875,412.57167,412.57458,412.5775,412.58042,412.58333,412.58625,412.58917,412.59208,412.595,412.59792,412.60083,412.60375,412.60667,412.60958,412.6125,412.61542,412.61833,412.62125,412.62417,412.62708;

Schedule:Day:Hourly, aaaa2217-d5e0-4ede-9db5-83e478ae4d18, AnyNumber,412.63,412.6325,412.635,412.6375,412.64,412.6425,412.645,412.6475,412.65,412.6525,412.655,412.6575,412.66,412.6625,412.665,412.6675,412.67,412.6725,412.675,412.6775,412.68,412.6825,412.685,412.6875;

Schedule:Day:Hourly, 17ea3cd6-5039-49c7-bed0-99fa0277178b, AnyNumber,412.69,412.69292,412.69583,412.69875,412.70167,412.70458,412.7075,412.71042,412.71333,412.71625,412.71917,412.72208,412.725,412.72792,412.73083,412.73375,412.73667,412.73958,412.7425,412.74542,412.74833,412.75125,412.75417,412.75708;

Schedule:Day:Hourly, 34900ef6-90f8-4726-aa23-689a6d1e4cf9, AnyNumber,412.76,412.7625,412.765,412.7675,412.77,412.7725,412.775,412.7775,412.78,412.7825,412.785,412.7875,412.79,412.7925,412.795,412.7975,412.8,412.8025,412.805,412.8075,412.81,412.8125,412.815,412.8175;

Schedule:Day:Hourly, 4129d634-3d8f-4bef-a193-450bfd78efe3, AnyNumber,412.82,412.8225,412.825,412.8275,412.83,412.8325,412.835,412.8375,412.84,412.8425,412.845,412.8475,412.85,412.8525,412.855,412.8575,412.86,412.8625,412.865,412.8675,412.87,412.8725,412.875,412.8775;

Schedule:Day:Hourly, 3627c43c-ec90-49cb-ab98-81c32e837125, AnyNumber,412.88,412.8825,412.885,412.8875,412.89,412.8925,412.895,412.8975,412.9,412.9025,412.905,412.9075,412.91,412.9125,412.915,412.9175,412.92,412.9225,412.925,412.9275,412.93,412.9325,412.935,412.9375;

Schedule:Day:Hourly, 674c0d70-286b-419f-b43b-bb22e0b0368e, AnyNumber,412.94,412.9425,412.945,412.9475,412.95,412.9525,412.955,412.9575,412.96,412.9625,412.965,412.9675,412.97,412.9725,412.975,412.9775,412.98,412.9825,412.985,412.9875,412.99,412.9925,412.995,412.9975;

Schedule:Day:Hourly, 8ee4f8c4-8604-462a-b434-0f98c3d0a582, AnyNumber,413,413.00208,413.00417,413.00625,413.00833,413.01042,413.0125,413.01458,413.01667,413.01875,413.02083,413.02292,413.025,413.02708,413.02917,413.03125,413.03333,413.03542,413.0375,413.03958,413.04167,413.04375,413.04583,413.04792;

Schedule:Day:Hourly, 601ffd8b-50e3-47e2-b7e9-764a067599dc, AnyNumber,413.05,413.0525,413.055,413.0575,413.06,413.0625,413.065,413.0675,413.07,413.0725,413.075,413.0775,413.08,413.0825,413.085,413.0875,413.09,413.0925,413.095,413.0975,413.1,413.1025,413.105,413.1075;

Schedule:Day:Hourly, 7b2d4081-b65c-4a26-9e24-7db9658739e5, AnyNumber,413.11,413.1125,413.115,413.1175,413.12,413.1225,413.125,413.1275,413.13,413.1325,413.135,413.1375,413.14,413.1425,413.145,413.1475,413.15,413.1525,413.155,413.1575,413.16,413.1625,413.165,413.1675;

Schedule:Day:Hourly, 1962a4b5-601e-4233-9c72-4eddc4e77a7d, AnyNumber,413.17,413.17208,413.17417,413.17625,413.17833,413.18042,413.1825,413.18458,413.18667,413.18875,413.19083,413.19292,413.195,413.19708,413.19917,413.20125,413.20333,413.20542,413.2075,413.20958,413.21167,413.21375,413.21583,413.21792;

Schedule:Day:Hourly, ec7c9688-6d1f-473f-9fb1-d310a85b86bc, AnyNumber,413.22,413.22208,413.22417,413.22625,413.22833,413.23042,413.2325,413.23458,413.23667,413.23875,413.24083,413.24292,413.245,413.24708,413.24917,413.25125,413.25333,413.25542,413.2575,413.25958,413.26167,413.26375,413.26583,413.26792;

Schedule:Day:Hourly, 0746092d-52f4-4abf-aac7-6cfff0bb6c63, AnyNumber,413.27,413.27208,413.27417,413.27625,413.27833,413.28042,413.2825,413.28458,413.28667,413.28875,413.29083,413.29292,413.295,413.29708,413.29917,413.30125,413.30333,413.30542,413.3075,413.30958,413.31167,413.31375,413.31583,413.31792;

Schedule:Day:Hourly, 27002504-212d-4a45-b024-9da00ed475dc, AnyNumber,413.32,413.32208,413.32417,413.32625,413.32833,413.33042,413.3325,413.33458,413.33667,413.33875,413.34083,413.34292,413.345,413.34708,413.34917,413.35125,413.35333,413.35542,413.3575,413.35958,413.36167,413.36375,413.36583,413.36792;

Schedule:Day:Hourly, 7c98908a-9228-474b-9b05-e689d4f7247e, AnyNumber,413.37,413.37208,413.37417,413.37625,413.37833,413.38042,413.3825,413.38458,413.38667,413.38875,413.39083,413.39292,413.395,413.39708,413.39917,413.40125,413.40333,413.40542,413.4075,413.40958,413.41167,413.41375,413.41583,413.41792;

Schedule:Day:Hourly, ee376ad5-186c-4d87-9a5d-c93d4622fc53, AnyNumber,413.42,413.42208,413.42417,413.42625,413.42833,413.43042,413.4325,413.43458,413.43667,413.43875,413.44083,413.44292,413.445,413.44708,413.44917,413.45125,413.45333,413.45542,413.4575,413.45958,413.46167,413.46375,413.46583,413.46792;

Schedule:Day:Hourly, 9d477065-fc50-4057-bb17-b8310392ac3a, AnyNumber,413.47,413.47167,413.47333,413.475,413.47667,413.47833,413.48,413.48167,413.48333,413.485,413.48667,413.48833,413.49,413.49167,413.49333,413.495,413.49667,413.49833,413.5,413.50167,413.50333,413.505,413.50667,413.50833;

Schedule:Day:Hourly, 85eb044f-c187-450c-adff-4a40dbdcc0bd, AnyNumber,413.51,413.51208,413.51417,413.51625,413.51833,413.52042,413.5225,413.52458,413.52667,413.52875,413.53083,413.53292,413.535,413.53708,413.53917,413.54125,413.54333,413.54542,413.5475,413.54958,413.55167,413.55375,413.55583,413.55792;

Schedule:Day:Hourly, 736c5dbb-3872-441d-8f96-e5e2981cd63c, AnyNumber,413.56,413.56167,413.56333,413.565,413.56667,413.56833,413.57,413.57167,413.57333,413.575,413.57667,413.57833,413.58,413.58167,413.58333,413.585,413.58667,413.58833,413.59,413.59167,413.59333,413.595,413.59667,413.59833;

Schedule:Day:Hourly, 8ca92f4c-e2ce-4057-950a-5f0d838c3c58, AnyNumber,413.6,413.60167,413.60333,413.605,413.60667,413.60833,413.61,413.61167,413.61333,413.615,413.61667,413.61833,413.62,413.62167,413.62333,413.625,413.62667,413.62833,413.63,413.63167,413.63333,413.635,413.63667,413.63833;

Schedule:Day:Hourly, d89b520a-c49b-4289-83d9-3abeb3dabd43, AnyNumber,413.64,413.64167,413.64333,413.645,413.64667,413.64833,413.65,413.65167,413.65333,413.655,413.65667,413.65833,413.66,413.66167,413.66333,413.665,413.66667,413.66833,413.67,413.67167,413.67333,413.675,413.67667,413.67833;

Schedule:Day:Hourly, d92af288-9f16-4055-a3a7-0b5588aeaca3, AnyNumber,413.68,413.68167,413.68333,413.685,413.68667,413.68833,413.69,413.69167,413.69333,413.695,413.69667,413.69833,413.7,413.70167,413.70333,413.705,413.70667,413.70833,413.71,413.71167,413.71333,413.715,413.71667,413.71833;

Schedule:Day:Hourly, 6d591fb9-e45c-4552-9e57-533e84e6bd84, AnyNumber,413.72,413.72167,413.72333,413.725,413.72667,413.72833,413.73,413.73167,413.73333,413.735,413.73667,413.73833,413.74,413.74167,413.74333,413.745,413.74667,413.74833,413.75,413.75167,413.75333,413.755,413.75667,413.75833;

Schedule:Day:Hourly, 4315e473-8c3e-4d3a-b56f-1a92df47b849, AnyNumber,413.76,413.76167,413.76333,413.765,413.76667,413.76833,413.77,413.77167,413.77333,413.775,413.77667,413.77833,413.78,413.78167,413.78333,413.785,413.78667,413.78833,413.79,413.79167,413.79333,413.795,413.79667,413.79833;

Schedule:Day:Hourly, 65aa4e1c-841d-43bd-9abf-c3eefea3aefe, AnyNumber,413.8,413.80125,413.8025,413.80375,413.805,413.80625,413.8075,413.80875,413.81,413.81125,413.8125,413.81375,413.815,413.81625,413.8175,413.81875,413.82,413.82125,413.8225,413.82375,413.825,413.82625,413.8275,413.82875;

Schedule:Day:Hourly, 3f5bcc28-406e-4478-bf77-5179d52d2c13, AnyNumber,413.83,413.83167,413.83333,413.835,413.83667,413.83833,413.84,413.84167,413.84333,413.845,413.84667,413.84833,413.85,413.85167,413.85333,413.855,413.85667,413.85833,413.86,413.86167,413.86333,413.865,413.86667,413.86833;

Schedule:Day:Hourly, 991d02d8-b765-427a-a4b8-579c62840f06, AnyNumber,413.87,413.87125,413.8725,413.87375,413.875,413.87625,413.8775,413.87875,413.88,413.88125,413.8825,413.88375,413.885,413.88625,413.8875,413.88875,413.89,413.89125,413.8925,413.89375,413.895,413.89625,413.8975,413.89875;

Schedule:Day:Hourly, 6b7a5304-c62c-4d97-8004-100bf8815376, AnyNumber,413.9,413.90125,413.9025,413.90375,413.905,413.90625,413.9075,413.90875,413.91,413.91125,413.9125,413.91375,413.915,413.91625,413.9175,413.91875,413.92,413.92125,413.9225,413.92375,413.925,413.92625,413.9275,413.92875;

Schedule:Day:Hourly, 18a63f4c-7d42-4760-8897-04022b84f69c, AnyNumber,413.93,413.93167,413.93333,413.935,413.93667,413.93833,413.94,413.94167,413.94333,413.945,413.94667,413.94833,413.95,413.95167,413.95333,413.955,413.95667,413.95833,413.96,413.96167,413.96333,413.965,413.96667,413.96833;

Schedule:Day:Hourly, 15f314b0-ce3e-411e-add5-4b46a99147de, AnyNumber,413.97,413.97125,413.9725,413.97375,413.975,413.97625,413.9775,413.97875,413.98,413.98125,413.9825,413.98375,413.985,413.98625,413.9875,413.98875,413.99,413.99125,413.9925,413.99375,413.995,413.99625,413.9975,413.99875;

Schedule:Day:Hourly, 15eb1be7-4c80-4dfd-ab18-cad7b85e85e3, AnyNumber,414,414.00083,414.00167,414.0025,414.00333,414.00417,414.005,414.00583,414.00667,414.0075,414.00833,414.00917,414.01,414.01083,414.01167,414.0125,414.01333,414.01417,414.015,414.01583,414.01667,414.0175,414.01833,414.01917;

Schedule:Day:Hourly, 1647bb68-9dcf-4f5a-97a5-6f1c3366130c, AnyNumber,414.02,414.02125,414.0225,414.02375,414.025,414.02625,414.0275,414.02875,414.03,414.03125,414.0325,414.03375,414.035,414.03625,414.0375,414.03875,414.04,414.04125,414.0425,414.04375,414.045,414.04625,414.0475,414.04875;

Schedule:Day:Hourly, f60ea10f-d01b-4a5c-913e-860687fc4c1b, AnyNumber,414.05,414.05125,414.0525,414.05375,414.055,414.05625,414.0575,414.05875,414.06,414.06125,414.0625,414.06375,414.065,414.06625,414.0675,414.06875,414.07,414.07125,414.0725,414.07375,414.075,414.07625,414.0775,414.07875;

Schedule:Day:Hourly, 41aaa266-9c1a-4baa-ab07-044f2e2eb800, AnyNumber,414.08,414.08125,414.0825,414.08375,414.085,414.08625,414.0875,414.08875,414.09,414.09125,414.0925,414.09375,414.095,414.09625,414.0975,414.09875,414.1,414.10125,414.1025,414.10375,414.105,414.10625,414.1075,414.10875;

Schedule:Day:Hourly, 2f0df541-cfd0-4e8a-b7a1-a82f86030702, AnyNumber,414.13,414.13125,414.1325,414.13375,414.135,414.13625,414.1375,414.13875,414.14,414.14125,414.1425,414.14375,414.145,414.14625,414.1475,414.14875,414.15,414.15125,414.1525,414.15375,414.155,414.15625,414.1575,414.15875;

Schedule:Day:Hourly, a99c916e-361d-404f-8a2e-7e2ad4c3eb47, AnyNumber,414.22,414.22125,414.2225,414.22375,414.225,414.22625,414.2275,414.22875,414.23,414.23125,414.2325,414.23375,414.235,414.23625,414.2375,414.23875,414.24,414.24125,414.2425,414.24375,414.245,414.24625,414.2475,414.24875;

Schedule:Day:Hourly, 97719efc-fd1f-427d-b800-aa0754bfe900, AnyNumber,414.27,414.27083,414.27167,414.2725,414.27333,414.27417,414.275,414.27583,414.27667,414.2775,414.27833,414.27917,414.28,414.28083,414.28167,414.2825,414.28333,414.28417,414.285,414.28583,414.28667,414.2875,414.28833,414.28917;

Schedule:Day:Hourly, e0fc19d2-dff7-4739-b09f-5ebf74c5fe0e, AnyNumber,414.29,414.29042,414.29083,414.29125,414.29167,414.29208,414.2925,414.29292,414.29333,414.29375,414.29417,414.29458,414.295,414.29542,414.29583,414.29625,414.29667,414.29708,414.2975,414.29792,414.29833,414.29875,414.29917,414.29958;

Schedule:Day:Hourly, 6db8ccbf-8e89-41e2-867d-e94ad568f327, AnyNumber,414.32,414.32083,414.32167,414.3225,414.32333,414.32417,414.325,414.32583,414.32667,414.3275,414.32833,414.32917,414.33,414.33083,414.33167,414.3325,414.33333,414.33417,414.335,414.33583,414.33667,414.3375,414.33833,414.33917;

Schedule:Day:Hourly, fc029b17-757f-40b0-a531-c95c6eb37c9b, AnyNumber,414.34,414.34083,414.34167,414.3425,414.34333,414.34417,414.345,414.34583,414.34667,414.3475,414.34833,414.34917,414.35,414.35083,414.35167,414.3525,414.35333,414.35417,414.355,414.35583,414.35667,414.3575,414.35833,414.35917;

Schedule:Day:Hourly, 20b49e63-42b0-4d42-8918-e5dc77b17947, AnyNumber,414.39,414.39083,414.39167,414.3925,414.39333,414.39417,414.395,414.39583,414.39667,414.3975,414.39833,414.39917,414.4,414.40083,414.40167,414.4025,414.40333,414.40417,414.405,414.40583,414.40667,414.4075,414.40833,414.40917;

Schedule:Day:Hourly, 4211a34e-e939-4752-92e5-f87d9c18e87f, AnyNumber,414.41,414.41083,414.41167,414.4125,414.41333,414.41417,414.415,414.41583,414.41667,414.4175,414.41833,414.41917,414.42,414.42083,414.42167,414.4225,414.42333,414.42417,414.425,414.42583,414.42667,414.4275,414.42833,414.42917;

Schedule:Day:Hourly, 4c892d44-68b6-4224-a674-523a6efe9fec, AnyNumber,414.44,414.44083,414.44167,414.4425,414.44333,414.44417,414.445,414.44583,414.44667,414.4475,414.44833,414.44917,414.45,414.45083,414.45167,414.4525,414.45333,414.45417,414.455,414.45583,414.45667,414.4575,414.45833,414.45917;

Schedule:Day:Hourly, c08c9cb9-5319-491a-8b50-69c35d6da706, AnyNumber,414.47,414.47083,414.47167,414.4725,414.47333,414.47417,414.475,414.47583,414.47667,414.4775,414.47833,414.47917,414.48,414.48083,414.48167,414.4825,414.48333,414.48417,414.485,414.48583,414.48667,414.4875,414.48833,414.48917;

Schedule:Day:Hourly, 2ce892b3-4a03-426f-ba00-02a288c43bf8, AnyNumber,414.5,414.50083,414.50167,414.5025,414.50333,414.50417,414.505,414.50583,414.50667,414.5075,414.50833,414.50917,414.51,414.51083,414.51167,414.5125,414.51333,414.51417,414.515,414.51583,414.51667,414.5175,414.51833,414.51917;

Schedule:Day:Hourly, db9ffaee-8f7f-498e-9418-62808e0915a1, AnyNumber,414.53,414.53083,414.53167,414.5325,414.53333,414.53417,414.535,414.53583,414.53667,414.5375,414.53833,414.53917,414.54,414.54083,414.54167,414.5425,414.54333,414.54417,414.545,414.54583,414.54667,414.5475,414.54833,414.54917;

Schedule:Day:Hourly, c748ef99-820d-4957-a9e8-02f3609be240, AnyNumber,414.55,414.55042,414.55083,414.55125,414.55167,414.55208,414.5525,414.55292,414.55333,414.55375,414.55417,414.55458,414.555,414.55542,414.55583,414.55625,414.55667,414.55708,414.5575,414.55792,414.55833,414.55875,414.55917,414.55958;

Schedule:Day:Hourly, 085240db-2fff-4aa0-8eaf-bff2a10576ec, AnyNumber,414.56,414.56083,414.56167,414.5625,414.56333,414.56417,414.565,414.56583,414.56667,414.5675,414.56833,414.56917,414.57,414.57083,414.57167,414.5725,414.57333,414.57417,414.575,414.57583,414.57667,414.5775,414.57833,414.57917;

Schedule:Day:Hourly, 92d075c4-2384-4077-89d4-3361a973f587, AnyNumber,414.58,414.58042,414.58083,414.58125,414.58167,414.58208,414.5825,414.58292,414.58333,414.58375,414.58417,414.58458,414.585,414.58542,414.58583,414.58625,414.58667,414.58708,414.5875,414.58792,414.58833,414.58875,414.58917,414.58958;

Schedule:Day:Hourly, 304f4a86-f912-4ac4-a118-3e868f4288e6, AnyNumber,414.59,414.59083,414.59167,414.5925,414.59333,414.59417,414.595,414.59583,414.59667,414.5975,414.59833,414.59917,414.6,414.60083,414.60167,414.6025,414.60333,414.60417,414.605,414.60583,414.60667,414.6075,414.60833,414.60917;

Schedule:Day:Hourly, a1a73bc4-ac08-4a1b-9c59-8dc5db2a2539, AnyNumber,414.61,414.61042,414.61083,414.61125,414.61167,414.61208,414.6125,414.61292,414.61333,414.61375,414.61417,414.61458,414.615,414.61542,414.61583,414.61625,414.61667,414.61708,414.6175,414.61792,414.61833,414.61875,414.61917,414.61958;

Schedule:Day:Hourly, 98a5222e-3f62-49a2-bbdf-c69f322ed480, AnyNumber,414.62,414.62083,414.62167,414.6225,414.62333,414.62417,414.625,414.62583,414.62667,414.6275,414.62833,414.62917,414.63,414.63083,414.63167,414.6325,414.63333,414.63417,414.635,414.63583,414.63667,414.6375,414.63833,414.63917;

Schedule:Day:Hourly, e828dc2d-7797-4562-8c5f-f636e1bccfeb, AnyNumber,414.64,414.64083,414.64167,414.6425,414.64333,414.64417,414.645,414.64583,414.64667,414.6475,414.64833,414.64917,414.65,414.65083,414.65167,414.6525,414.65333,414.65417,414.655,414.65583,414.65667,414.6575,414.65833,414.65917;

Schedule:Day:Hourly, 4876bd11-00f7-427a-b1de-3d6ecd88e62a, AnyNumber,414.66,414.66042,414.66083,414.66125,414.66167,414.66208,414.6625,414.66292,414.66333,414.66375,414.66417,414.66458,414.665,414.66542,414.66583,414.66625,414.66667,414.66708,414.6675,414.66792,414.66833,414.66875,414.66917,414.66958;

Schedule:Day:Hourly, a1b1c559-4b58-42ea-a261-67ec88b48e7f, AnyNumber,414.67,414.67083,414.67167,414.6725,414.67333,414.67417,414.675,414.67583,414.67667,414.6775,414.67833,414.67917,414.68,414.68083,414.68167,414.6825,414.68333,414.68417,414.685,414.68583,414.68667,414.6875,414.68833,414.68917;

Schedule:Day:Hourly, 951a8510-b766-447b-bd18-4d624236bb34, AnyNumber,414.69,414.69042,414.69083,414.69125,414.69167,414.69208,414.6925,414.69292,414.69333,414.69375,414.69417,414.69458,414.695,414.69542,414.69583,414.69625,414.69667,414.69708,414.6975,414.69792,414.69833,414.69875,414.69917,414.69958;

Schedule:Day:Hourly, 14bb975d-990e-4196-ace4-715ee382a3b8, Fraction,1,1,1,1,1,1,1,0.85,0.39,0.25,0.25,0.25,0.25,0.25,0.25,0.25,0.3,0.52,0.87,0.87,0.87,1,1,1;

Schedule:Day:Hourly, 12e0b064-d9bd-4e15-bfdf-feaf6bab5c2a, Fraction,0,0,0,0,0,0,1,1,1,1,1,1,1,1,1,1,1,1,1,1,1,0,0,0;

Schedule:Day:Hourly, d7b9a0d0-8ef3-4efc-98d6-84cd40ab6504, Fraction,0.1,0.1,0.1,0.1,0.1,0.1,0.5,1,0.5,0.5,0.5,1,1,0.5,0.5,0.5,1,1,1,1,0.5,0.5,0.5,0.1;

Schedule:Day:Hourly, 41e3706f-bfd9-475a-a1c9-97befab7e728, Fraction,1,1,1,1,1,1,1,1,0,0,0,0,0,1,0,0,0,0,0,0,0,0,0,0;

Schedule:Day:Hourly, 003c1343-9910-4965-afdd-74b0b1b28fbc, Fraction,1,1,1,1,1,1,1,1,0,0,0,0,0,0,0,0,0,0,0,0,0,0,0,0;

Schedule:Day:Hourly, 592fde84-3739-4fcd-9dbb-e82d49b38008, Fraction,1,1,1,1,1,1,1,1,0,0,0,1,1,1,1,1,0,0,0,0,0,0,0,1;

Schedule:Day:Hourly, c7d6d40d-0525-452e-b572-e7be6537316a, Fraction,1,1,1,1,1,1,1,1,0,0,0,0,0,0,0,0,0,0,0,0,0,0,0,1;

Schedule:Day:Hourly, a67115f7-0c0f-4c55-8e0f-8c1563bca754, Fraction,1,1,1,1,1,1,1,1,0,0,0,0,1,1,1,0,0,0,0,0,0,0,0,0;

Schedule:Day:Hourly, 194f9090-8a79-4b3e-b2cb-84600edd803d, Fraction,1,1,1,1,1,1,1,1,0,0,0,0,0,0,0,0,0,0,0,0,0,0,1,1;

Schedule:Day:Hourly, fdb4c805-b148-45b7-8a80-2cfb62477cf0, Fraction,1,1,1,1,1,1,1,0,0,0,0,0,1,1,1,1,0,0,0,0,0,0,0,1;

Schedule:Day:Hourly, db07ce6c-1d0b-40f1-9724-6f7446501cfa, Fraction,1,1,1,1,1,1,1,1,0,0,0,0,1,1,1,1,1,0,0,0,0,0,0,0;

Schedule:Day:Hourly, 2ef58c4e-7782-433d-b245-3dfc69d2d938, Fraction,1,1,1,1,1,1,1,1,0,0,0,0,1,1,1,1,1,0,0,0,0,0,0,1;

Schedule:Day:Hourly, 8554aa95-b668-4dca-a63c-ef558b6840aa, Fraction,1,1,1,1,1,0,0,0,0,0,1,1,1,1,0,0,0,0,0,0,0,0,1,1;

Schedule:Day:Hourly, f2ee4175-6857-4605-9cf5-0d689a499c7e, Fraction,1,1,1,1,1,0,0,0,0,0,0,0,0,0,0,1,1,1,1,1,1,1,1,1;

Schedule:Day:Hourly, 77121a80-c25f-4aee-a029-030d4ae72bd5, Fraction,1,1,1,1,1,1,1,0,0,0,0,0,0,0,0,0,0,0,0,0,0,0,1,1;

Schedule:Day:Hourly, fffc3896-25cf-44af-94cd-55cf098dfa24, Fraction,1,1,1,1,1,1,1,0,0,0,0,0,0,0,0,0,0,0,0,0,0,0,0,1;

Schedule:Day:Hourly, 149ccc56-7a22-414c-9f75-6d599b7fdbc0, Fraction,1,1,1,1,1,1,1,1,1,1,1,0,0,0,0,0,0,0,0,0,1,1,1,1;

Schedule:Day:Hourly, 7c6f2c83-bb2d-4e27-9aec-c8de8118fafc, Fraction,1,1,1,1,1,1,0,0,0,0,0,0,0,0,0,0,0,0,0,0,0,1,1,1;

Schedule:Day:Hourly, a3f53767-956a-4abc-8ccb-cce3d777838f, Fraction,1,1,1,1,0,0,0,0,0,0,0,0,0,0,0,0,0,0,0,0,0,1,1,1;

Schedule:Day:Hourly, b1e451ea-7f95-4729-8564-cad973b34af2, Fraction,1,1,1,1,1,1,1,1,1,1,1,1,1,1,0,0,0,0,0,0,1,1,1,1;

Schedule:Day:Hourly, d85c2b70-7dd5-425e-834c-41bbc1fc5abe, Fraction,1,1,1,1,1,1,0,0,0,0,0,0,0,0,0,0,0,0,0,0,0,0,1,1;

Schedule:Day:Hourly, 32c04440-bd43-4dae-8e45-5b77bce29465, Fraction,0,1,1,1,1,1,1,1,0,0,0,0,0,1,0,0,0,0,1,1,1,1,1,1;

Schedule:Day:Hourly, fc0c8862-1914-459e-ac44-f57620b0de64, Fraction,1,1,1,1,1,1,0,0,0,0,0,0,1,1,0,0,1,1,1,1,1,1,1,1;

Schedule:Day:Hourly, 43b29f55-281e-49cd-b712-60673e09300b, Fraction,1,1,1,1,1,1,1,1,0,0,0,0,0,0,0,0,0,0,0,0,0,1,1,1;

Schedule:Day:Hourly, bc2b132b-3301-4997-a409-8251784d9710, Fraction,1,1,1,0,0,0,0,0,0,0,0,0,0,0,0,0,0,0,0,0,0,0,0,0;

Schedule:Day:Hourly, a3b6eae0-cd16-4146-a72c-33d93536b6d5, Fraction,1,1,1,1,1,1,1,1,0,0,0,0,1,1,1,1,0,0,0,0,0,0,0,0;

Schedule:Day:Hourly, a297b178-5400-48e8-8c2b-5383d49696c1, Fraction,0,0,0,0,0,0,0,0,1,1,1,1,1,1,1,1,0,0,0,0,0,0,0,0;

Schedule:Day:Hourly, 0bd720d0-16f9-43d1-8c99-a7f570c083cc, Fraction,0,0,0,1,1,1,1,1,0,0,0,0,0,0,0,0,0,0,0,0,0,0,0,0;

Schedule:Day:Hourly, 34931478-d65c-4a1a-80c3-ffcafce02f3b, Fraction,0,0,0,1,1,1,1,1,0,0,0,0,0,1,1,1,0,0,0,0,0,0,0,0;

Schedule:Day:Hourly, 0be8be69-e262-4302-bc3f-879d800dc5b3, Fraction,0,1,1,1,1,1,1,1,0,0,0,0,0,1,1,0,0,0,0,0,0,0,0,0;

Schedule:Day:Hourly, 393e0f77-cf9c-4917-a52e-2c18a27275d3, Fraction,0,0,0,0,1,1,1,1,0,0,0,0,0,0,0,0,0,0,0,0,0,0,0,0;

Schedule:Day:Hourly, ec5d5c53-5788-4abc-8180-0154a594163a, Fraction,1,1,1,1,1,1,1,1,1,0,1,1,1,1,1,1,1,0,0,1,1,1,1,1;

Schedule:Day:Hourly, 1c7e563f-1008-46b0-a08b-5b2059d839fd, Fraction,1,1,1,1,1,1,1,1,0,0,0,1,1,1,1,1,0,1,1,1,1,1,1,1;

Schedule:Day:Hourly, 25d9ae31-c511-4500-9310-47b36bc8755f, Fraction,0,1,1,1,1,1,1,1,0,0,0,0,1,1,1,0,0,0,0,0,0,0,0,0;

Schedule:Day:Hourly, 328c9e66-c026-4f7c-941e-35b09cce5eaf, Fraction,0,0,0,0,0,0,0,0,0,0,0,0,1,0,0,0,0,0,0,0,0,0,0,0;

Schedule:Day:Hourly, 0bcc7613-16c7-4f50-b4d0-f3000df73108, Fraction,0,1,1,1,1,1,1,1,0,0,0,0,0,0,0,0,0,0,0,0,0,0,0,0;

Schedule:Day:Hourly, 95e1dacb-4847-45bb-8ff6-329f5872c8ae, Fraction,0,1,0,0,1,0,0,0,0,0,0,1,1,1,1,1,1,0,0,0,0,0,0,0;

Schedule:Day:Hourly, a368cf70-1db9-4d2f-addf-36a33630691f, Fraction,0,0,0,0,0,0,0,0,0,0,0,0,1,0,1,0,0,0,0,0,0,0,0,0;

Schedule:Day:Hourly, cfd69087-4443-4d2d-83c7-c51484c2fd0f, Fraction,0,0,0,0,0,0,0,0,0,0,0,1,0,0,1,1,0,0,0,0,0,0,0,1;

Schedule:Day:Hourly, eaea7ef1-044b-4db2-9232-ebc82cdee0b3, Fraction,0,0,0,1,1,1,1,1,0,0,0,1,1,1,1,0,0,0,0,0,0,1,1,0;

Schedule:Day:Hourly, e92e06b3-11b9-4b8d-8aab-264918818f6d, Fraction,0,1,1,1,1,1,1,1,0,0,0,1,1,1,1,1,0,0,1,0,0,1,1,1;

Schedule:Day:Hourly, 9028a64a-fa1d-4ac5-ba6b-f5c559afd600, Fraction,1,1,1,1,1,1,1,1,0,0,0,1,1,1,1,0,0,0,0,1,0,0,1,1;

Schedule:Day:Hourly, e5ca6391-3192-4c0e-8131-34b922f7b05b, Fraction,1,1,1,1,1,1,1,1,1,1,0,0,0,0,0,0,0,0,0,1,1,1,1,1;

Schedule:Day:Hourly, 8a7d1130-7860-4e5d-9136-6d20c174eaa8, Fraction,1,1,1,1,1,1,1,1,0,0,0,1,1,1,1,1,1,0,1,1,1,1,1,1;

Schedule:Day:Hourly, 10834950-445a-4d6c-86dc-96d8ef2e6718, Fraction,1,1,0,0,1,1,0,0,0,0,0,1,0,0,1,1,0,0,0,0,0,0,0,0;

Schedule:Day:Hourly, 0af50177-0b11-49a9-aba1-fc396bc8b445, Fraction,0,1,1,0,1,1,0,0,0,0,0,1,1,1,1,1,1,0,0,0,0,0,0,0;

Schedule:Day:Hourly, cb927db4-a6bb-4d7f-b4ff-91dc8e4b721c, Fraction,0,0,0,0,1,1,1,1,0,0,0,1,1,1,1,1,0,0,0,0,0,0,0,0;

Schedule:Day:Hourly, 43a85af4-5db7-43c8-b0b0-0cfb932f600b, Fraction,1,1,1,1,1,1,1,1,0,0,0,1,1,1,1,1,0,0,0,0,0,0,0,0;

Schedule:Day:Hourly, bea93d85-fc23-433c-a16f-b5a2a5c822be, Fraction,0,0,1,1,1,1,1,0,0,0,0,1,1,1,1,1,1,0,0,0,0,0,0,0;

Schedule:Day:Hourly, db693b62-aad0-4b69-a419-fa5af28b9cf3, Fraction,0,0,0,0,0,0,0,0,0,0,0,0,0,1,0,0,0,0,0,0,0,0,0,0;

Schedule:Day:Hourly, a7c11301-8e18-412d-a485-a5004bdc39de, Fraction,0,0,0,0,0,0,0,0,0,0,0,1,1,1,0,0,0,0,0,0,0,0,0,0;

Schedule:Day:Hourly, d241b76a-ac68-4807-ab79-8a768b6f61a7, Fraction,0,0,0,0,0,0,0,0,0,0,0,0,1,1,1,1,0,0,0,0,0,0,0,0;

Schedule:Day:Hourly, 5369e767-0d8e-4b32-8cd4-c346fa9b5939, Fraction,0,0,0,1,1,1,1,1,0,0,0,1,1,1,1,1,0,0,0,0,0,0,0,0;

Schedule:Day:Hourly, f7156fc8-91b6-48a4-9085-4e32a69e2b1a, Fraction,1,1,1,0,1,1,1,1,0,0,0,1,1,1,1,1,1,0,0,0,0,0,0,1;

Schedule:Day:Hourly, 35fda236-6921-48e6-9830-098c5263a011, Fraction,1,1,1,1,1,1,1,1,0,0,0,1,1,1,1,1,1,0,0,0,0,0,0,1;

Schedule:Day:Hourly, fd62cacc-abe7-44f2-8770-210d11e35613, Fraction,1,1,1,1,0,0,0,1,0,0,1,1,1,1,1,1,1,0,0,0,0,0,0,0;

Schedule:Day:Hourly, 7ee65adc-2d17-47fb-89dd-ade89af1af84, Fraction,1,1,1,1,0,0,0,0,0,0,0,1,1,1,1,1,1,0,0,0,0,0,0,0;

Schedule:Day:Hourly, c0654989-8f39-4b18-864e-eb22d4a3342d, Fraction,0,0,0,0,0,0,0,0,0,0,0,1,1,1,1,1,0,0,0,0,0,1,1,1;

Schedule:Day:Hourly, 23d9486e-cd81-49e8-b8ac-7b3449a86746, Fraction,1,1,1,1,1,1,1,1,1,1,0,0,0,0,1,1,0,0,0,1,1,0,1,0;

Schedule:Day:Hourly, 5f4d8d22-0120-4d1b-a6b7-a035c5265ab1, Fraction,0,1,1,1,1,1,1,1,1,1,1,1,0,1,0,1,1,1,1,1,1,1,1,1;

Schedule:Day:Hourly, 674b06d3-b604-48ea-86a4-add5b25dbf48, Fraction,1,1,1,1,1,1,1,1,0,0,0,1,0,1,1,0,0,0,0,1,0,1,1,1;

Schedule:Day:Hourly, 1d82ed7c-05c0-4b74-ae5d-eac78ce218c4, Fraction,1,1,1,1,1,1,1,1,0,0,0,1,1,1,1,1,1,1,0,0,0,0,0,0;

Schedule:Day:Hourly, 0e1ef495-01ff-4a26-b207-13c7c6a3d751, Fraction,1,0,1,1,1,0,1,1,0,0,0,1,1,1,1,1,1,0,0,0,0,0,0,0;

Schedule:Day:Hourly, 0a4c2ba7-d084-4828-9f66-3e72c7ca00d1, Fraction,0,0,0,0,0,1,1,0,0,0,0,0,1,1,1,1,0,0,0,0,1,1,1,0;

Schedule:Day:Hourly, 165a3cea-29f3-4c38-8ee1-088ed4f1a1f9, Fraction,0,1,0,1,1,1,1,1,0,0,0,1,1,1,1,1,1,0,0,0,0,0,0,0;

Schedule:Day:Hourly, bca71fbe-a804-43d9-82c7-7b29d92ffc62, Fraction,0,1,1,1,1,1,0,1,0,0,0,1,1,1,1,1,1,1,0,0,0,0,0,0;

Schedule:Day:Hourly, 8779e041-43cc-4635-9be7-dc18ccee0d4f, Fraction,0,0,0,1,1,1,1,1,0,0,0,1,1,1,1,1,1,1,0,0,0,0,0,0;

Schedule:Day:Hourly, e2581a7b-43c2-4a59-aa58-16e064d3d041, Fraction,0,0,0,0,1,1,1,1,0,0,0,1,1,1,1,1,1,1,0,0,0,0,0,0;

Schedule:Day:Hourly, 6c68c950-6354-4773-92b4-119c0da3ab9c, Fraction,0,0,1,1,1,1,1,1,0,0,0,1,1,1,1,1,0,1,1,1,0,1,1,1;

Schedule:Day:Hourly, d043911a-a4e4-4a07-b4eb-d4b02cd2e68c, Fraction,0,0,0,0,1,1,1,1,0,0,1,1,1,1,1,1,1,0,0,0,0,0,0,0;

Schedule:Day:Hourly, 0054b859-2743-4922-be13-5121baa5f1fc, Fraction,0,0,0,0,0,1,0,0,0,1,1,1,1,1,1,1,1,1,0,0,0,0,0,0;

Schedule:Day:Hourly, d57da6fb-427e-400c-902e-f2079f1c96f6, Fraction,0,0,0,1,1,1,1,0,0,0,0,1,1,1,1,1,1,1,0,0,0,0,0,0;

Schedule:Day:Hourly, 24eab098-ccec-4794-8b70-b730c65f53b9, Fraction,1,1,1,0,1,0,1,1,0,0,0,0,1,1,1,1,1,0,0,0,0,0,0,0;

Schedule:Day:Hourly, e458a064-98d4-4dda-8a7b-4235616c96f6, Fraction,0,0,1,1,1,1,1,1,0,1,1,1,1,1,0,1,0,0,0,1,0,0,1,1;

Schedule:Day:Hourly, 1dd2a086-aa54-43d9-8216-67f41470d57f, Fraction,1,1,1,1,1,1,0,1,0,1,1,1,1,1,1,1,1,1,0,0,0,0,0,0;

Schedule:Day:Hourly, 7db43608-da88-4c74-9608-fe96a58b802d, Fraction,0,1,1,1,1,1,0,1,0,0,0,1,1,1,0,0,0,0,0,0,0,0,0,1;

Schedule:Day:Hourly, d081e0ff-e50c-4c41-94dc-eb66605a89d4, Fraction,1,1,1,1,1,1,1,1,0,1,1,1,1,1,1,0,1,0,0,1,1,1,1,1;

Schedule:Day:Hourly, 41d41c44-63b3-4d16-ae11-5af6e43e17b0, Fraction,1,1,1,1,1,1,1,0,0,0,0,0,1,1,1,1,0,0,0,0,0,0,1,0;

Schedule:Day:Hourly, c43bcfc8-d056-4e56-be7d-fce85ea835ef, Fraction,0,0,1,1,1,1,1,1,0,1,1,1,1,1,1,1,1,1,1,0,0,0,0,0;

Schedule:Day:Hourly, 9505b86a-ae0c-4c3f-bbab-e2abc7e9cd5e, Fraction,1,1,1,1,1,1,1,1,0,0,1,1,1,0,0,0,0,0,0,1,0,1,1,1;

Schedule:Day:Hourly, 07f88278-11cf-423e-9762-aa66966af8c8, Fraction,1,1,1,1,1,1,1,1,0,0,0,1,1,1,1,1,0,0,0,0,0,1,1,1;

Schedule:Day:Hourly, 736c379e-de2b-405b-ab38-5d560375cccc, Fraction,1,1,1,1,1,1,1,1,0,1,1,0,1,1,1,0,0,0,0,1,1,1,1,1;

Schedule:Day:Hourly, 15e9c3dd-f94b-46ad-94c2-7e84793e8880, Fraction,1,1,1,1,1,1,1,1,0,0,1,1,1,1,1,1,1,1,0,0,0,0,0,0;

Schedule:Day:Hourly, f8150d4e-54ab-47d6-8b5e-4338ca9fef7d, Fraction,0,1,1,0,1,1,1,1,0,1,1,1,1,1,1,1,0,1,1,1,1,1,1,1;

Schedule:Day:Hourly, cc2d64af-ed4f-4791-9c5b-00e883829291, Fraction,1,1,0,1,1,1,1,1,0,0,1,1,1,0,0,0,1,1,0,1,1,1,1,1;

Schedule:Day:Hourly, 455044cb-f37e-440c-9569-b0253388d59d, Fraction,1,1,1,1,1,1,1,1,0,0,1,1,1,1,1,0,1,1,1,1,1,1,1,1;

Schedule:Day:Hourly, 8dde9b7d-4ffc-4661-b186-eec473e4b3fb, Fraction,1,1,1,1,1,1,1,1,1,0,1,1,1,1,1,0,1,0,0,1,1,1,1,1;

Schedule:Day:Hourly, c08be0c4-fcfa-406c-abdd-96a7b03b8551, Fraction,1,1,1,1,1,1,1,1,1,1,1,1,1,1,0,0,0,0,0,0,0,1,1,1;

Schedule:Day:Hourly, cb14452f-51dd-48e2-99e8-3dfb1e8afad8, Fraction,1,1,1,1,0,0,0,0,0,0,1,1,1,1,1,1,1,0,0,0,0,0,0,0;

Schedule:Day:Hourly, 505a70fc-b842-411e-897e-ccfe53d96d7b, Fraction,0,1,1,1,1,1,1,1,0,0,0,1,1,1,1,1,1,1,0,0,0,0,0,0;

Schedule:Day:Hourly, 4674d4ad-ae5e-4b79-a76a-2395b75afc9a, Fraction,0,1,0,0,1,0,1,0,0,0,1,1,1,1,1,1,1,0,0,0,0,0,0,0;

Schedule:Day:Hourly, 4f1f9660-3ca3-4c6a-a42a-adf5a542d551, Fraction,0,1,1,1,1,1,1,1,0,1,1,1,1,1,1,1,1,1,0,0,0,0,0,0;

Schedule:Day:Hourly, 0a821289-0550-470a-96e4-e78c7fa47668, Fraction,0,0,0,0,1,0,0,0,0,1,1,1,1,1,1,1,1,1,1,0,0,0,0,0;

Schedule:Day:Hourly, 9efa68b0-563c-4c22-8c0a-f95819fc4dfa, Fraction,0,0,0,0,1,1,0,1,0,0,1,1,0,1,1,1,1,1,1,1,1,1,1,1;

Schedule:Day:Hourly, f9308e66-c808-4c21-b694-b1e3117985f1, Fraction,1,1,1,1,1,1,1,1,0,0,0,1,1,1,1,1,1,0,0,0,0,0,0,0;

Schedule:Day:Hourly, e362bb62-e392-4f98-89a4-c7616ee0da78, Fraction,0,1,1,1,1,1,1,1,0,0,1,1,1,0,0,0,0,0,0,0,0,0,0,1;

Schedule:Day:Hourly, bdf4e634-f655-46b8-bb46-530eedc0b97c, Fraction,1,1,1,1,1,1,1,1,0,0,1,1,1,1,1,1,1,0,1,0,0,0,0,0;

Schedule:Day:Hourly, 6a83668f-6a61-4c04-9981-e358ef47ac49, Fraction,0,0,0,0,1,1,0,0,0,0,1,1,0,0,0,1,1,0,0,1,1,1,1,1;

Schedule:Day:Hourly, 3ba98dbe-32cd-4081-9a77-954be1298001, Fraction,1,1,1,1,1,1,1,1,0,0,0,1,1,1,1,0,0,1,1,1,1,1,1,1;

Schedule:Day:Hourly, 3d6d7624-3e5b-4558-a5ed-ea13f6046ad1, Fraction,1,1,1,1,1,1,1,1,0,0,0,1,1,1,1,0,1,1,0,0,0,0,0,0;

Schedule:Day:Hourly, 61d646ef-99a8-40fd-8593-29998eb71547, Fraction,0,0,0,0,1,0,0,0,0,1,0,1,1,1,0,1,1,1,1,1,1,1,1,1;

Schedule:Day:Hourly, ed082062-79aa-4376-9da4-cbc792f80ecc, Fraction,1,1,1,1,1,1,1,1,1,0,0,1,1,1,1,1,0,0,0,0,0,0,0,0;

Schedule:Day:Hourly, feebe028-c72b-4222-9db5-db50b9d0df7c, Fraction,1,1,1,1,1,1,1,1,0,1,1,1,1,1,1,0,0,0,0,0,0,0,0,0;

Schedule:Day:Hourly, 68b4197a-0a3c-45c0-aedb-0df11bae7eae, Fraction,1,1,1,0,1,1,0,1,0,0,0,1,1,1,0,0,0,0,0,0,0,0,0,0;

Schedule:Day:Hourly, 43ce78f5-0925-4cd2-8616-c9d19e1a19c7, Fraction,0,0,0,0,0,0,0,0,1,1,1,1,1,1,1,1,1,1,1,0,0,0,0,0;

Schedule:Day:Hourly, 5755456c-06a8-49fc-972e-33671b8ae1b7, Fraction,0,0,0,0,1,0,1,1,1,1,1,1,1,1,1,1,1,1,0,0,0,0,0,0;

Schedule:Day:Hourly, 5200658d-c955-470e-95e0-ef04002790a9, Fraction,0,0,0,0,0,1,1,1,1,1,1,1,1,1,1,1,1,1,1,0,0,0,0,0;

Schedule:Day:Hourly, 498a6981-8755-461b-a987-a16443a03934, Fraction,0,0,0,0,1,0,1,0,0,1,1,1,1,1,1,1,1,1,1,0,0,0,0,0;

Schedule:Day:Hourly, 454ad031-8e21-49a2-a97a-4076dc712759, Fraction,0,0,0,0,1,1,1,1,0,1,1,1,1,1,1,1,1,1,1,0,0,0,0,0;

Schedule:Day:Hourly, db00bee3-6bf5-4e51-860b-7654a3651c02, Fraction,0,0,0,0,0,0,0,0,1,1,1,1,1,1,0,0,0,0,0,1,0,0,0,0;

Schedule:Day:Hourly, a13aa85a-000d-465c-a9a8-7c2b2f731fb1, Fraction,0,1,0,0,1,0,1,1,0,1,1,1,1,0,1,0,0,0,0,0,0,0,0,1;

Schedule:Day:Hourly, b3e65846-52eb-4956-9420-03c2995b8da9, Fraction,1,0,1,1,1,1,1,0,0,1,1,1,0,0,1,1,1,0,0,0,0,0,0,0;

Schedule:Day:Hourly, 20378aa8-d61a-4f74-91d5-683cd33f14d5, Fraction,1,1,0,1,1,1,1,1,0,1,1,1,1,1,1,0,0,0,0,0,0,0,0,0;

Schedule:Day:Hourly, fad559f8-ab1f-4fb4-ae5d-f9fc2a055e9e, Fraction,0,1,1,1,1,1,1,1,0,1,1,1,0,1,1,1,0,1,0,1,1,0,1,0;

Schedule:Day:Hourly, 4a4370d5-d342-4cee-ac74-5d9edba1a746, Fraction,1,1,1,1,1,1,1,1,0,0,0,0,1,0,0,0,0,0,0,0,0,0,1,0;

Schedule:Day:Hourly, 6592fa1c-f5c6-49ea-82db-1ad3efec4262, Fraction,1,1,0,1,1,1,1,1,0,1,1,1,1,1,1,1,1,1,0,0,0,0,0,0;

Schedule:Day:Hourly, 3475fa83-0e1f-4ab1-b220-799a4c7799d6, Fraction,0,0,0,0,0,0,0,0,0,1,1,0,0,1,1,0,0,0,0,0,0,1,1,1;

Schedule:Day:Hourly, 4020d7ec-4854-4dc2-acbd-a5153dbbd921, Fraction,1,1,1,1,1,1,0,0,0,0,1,1,1,1,1,1,1,1,0,0,0,0,0,0;

Schedule:Day:Hourly, e589f685-a84e-4818-aee8-363d6345deae, Fraction,0,0,0,0,0,0,0,0,0,0,1,1,1,1,1,1,1,1,0,0,0,0,0,0;

Schedule:Day:Hourly, 1c53175b-d2d7-4a58-ab36-0fb8bf22b624, Fraction,0,0,0,1,1,1,0,0,0,0,0,0,1,1,0,0,1,1,0,0,0,1,1,1;

Schedule:Day:Hourly, b7f6722b-7e15-44fc-a5b6-c7948cf2828b, Fraction,1,1,1,1,1,1,1,1,0,1,1,1,0,0,0,0,0,0,0,0,0,0,0,1;

Schedule:Day:Hourly, cdbf392b-ad92-429b-8fa1-e90a48041854, Fraction,1,1,1,1,1,1,1,1,1,0,0,0,1,1,1,1,0,0,0,0,0,0,1,1;

Schedule:Day:Hourly, aa9000a8-7474-43d7-afaa-83856b8bd1f2, Fraction,1,1,1,1,1,1,1,1,0,0,1,1,1,1,1,1,1,0,0,0,0,0,0,0;

Schedule:Day:Hourly, 4ec5bce3-6218-4115-b27d-d4e593f8f2d8, Fraction,1,1,1,1,1,1,1,1,0,0,1,1,1,1,0,0,1,1,1,1,1,1,1,1;

Schedule:Day:Hourly, 492b02ff-45e8-4ae6-bd06-09335d1ef1e6, Fraction,1,1,1,1,1,1,1,1,0,0,1,1,1,1,0,0,0,1,1,1,1,1,1,1;

Schedule:Day:Hourly, b22414ec-ceea-47c7-9d2f-369ee415b721, Fraction,0,0,0,0,1,1,1,1,0,0,0,0,0,0,0,0,0,0,0,0,0,0,1,1;

Schedule:Day:Hourly, a24abd1d-2bfc-4427-b543-e2912398e3db, Fraction,1,1,1,1,1,1,1,1,1,1,1,1,1,1,1,1,1,1,1,0,0,0,0,0;

Schedule:Day:Hourly, 3c386093-14a7-4751-8f54-93ff7cfd9247, Fraction,0,0,0,0,0,0,0,0,0,0,1,1,1,1,1,0,0,0,0,0,0,1,1,1;

Schedule:Day:Hourly, 47df9d88-b14f-43eb-9254-53089a199fba, Fraction,1,1,1,1,1,1,1,1,1,0,0,0,1,1,1,1,1,0,0,0,0,0,0,0;

Schedule:Day:Hourly, e568a799-18e5-40c9-9397-6138e3e6018b, Fraction,0,1,0,0,0,1,1,1,0,0,1,1,1,0,0,0,0,0,0,0,0,0,0,0;

Schedule:Day:Hourly, a512e456-9579-4a72-9781-54939057d925, Fraction,1,1,1,1,1,1,1,1,1,0,0,0,0,0,0,0,1,1,0,0,0,0,0,0;

Schedule:Day:Hourly, ee3fc8ae-8142-4afc-9e43-1875c9e7ea1e, Fraction,0,0,0,1,1,0,0,0,0,1,1,1,0,0,0,0,0,0,0,0,0,0,0,0;

Schedule:Day:Hourly, e48a7c3a-0cbb-48f7-875c-b42f9bf48bb6, Fraction,0,0,0,0,0,0,0,0,0,1,1,1,0,0,0,0,0,0,0,0,1,1,1,1;

Schedule:Day:Hourly, 0fb08f27-7588-4a44-9de1-21b786adba81, Fraction,1,1,1,1,1,1,1,1,0,0,1,1,1,1,1,1,1,1,1,0,0,0,0,0;

Schedule:Day:Hourly, f1e54837-410d-46ad-9285-927ae60d0b4c, Fraction,0,1,1,1,1,1,0,0,0,1,1,1,1,1,1,1,1,0,0,0,0,0,0,0;

Schedule:Day:Hourly, 257b40ab-5645-4009-97af-efade599dc77, Fraction,0,1,1,1,1,1,1,1,1,0,0,1,1,1,1,1,0,0,0,0,0,0,0,0;

Schedule:Day:Hourly, 5e2766cb-6e55-4f57-8b2d-2d50a1cd2cf9, Fraction,0,0,0,0,0,0,0,0,0,0,0,0,1,1,1,1,0,0,0,0,0,0,0,1;

Schedule:Day:Hourly, d7e7454e-0c62-4fb5-abbb-e8e4b7720e89, Fraction,0,0,0,0,0,0,0,0,0,0,0,0,1,1,1,1,1,1,0,0,0,0,0,0;

Schedule:Day:Hourly, de3e5bea-eef4-4964-afd3-3b062cac8df1, Fraction,0,0,1,1,1,1,1,1,0,0,0,0,0,0,0,0,0,0,0,0,0,0,0,0;

Schedule:Day:Hourly, 50dfb5bd-6346-4189-aae5-ad157768b46a, Fraction,0,0,0,0,0,0,0,0,0,0,0,0,0,0,0,0,0,0,0,0,0,0,1,1;

Schedule:Day:Hourly, 5db1a842-f249-474b-81c4-4e124656ecfc, Fraction,0,0,0,1,1,1,1,1,1,0,0,0,0,0,0,0,1,0,0,0,0,0,0,0;

Schedule:Day:Hourly, bb4a2ede-820a-4d7e-8bc0-263da99094e4, Fraction,0,0,0,1,1,1,1,1,0,0,1,1,1,1,1,1,1,0,0,0,0,0,0,0;

Schedule:Day:Hourly, c41f3eef-3b00-4110-8635-a8c3acc68c17, Fraction,0,1,1,1,1,1,1,0,0,0,1,1,1,1,1,1,1,1,0,0,0,0,0,0;

Schedule:Day:Hourly, 86f06402-88b3-4b63-9d25-9e76e8101479, Fraction,0,0,0,0,0,0,0,0,0,1,1,1,1,1,1,1,0,0,0,0,0,0,0,0;

Schedule:Day:Hourly, ff2f4963-8b69-46bb-a096-fda8fec9c632, Fraction,0,1,1,1,1,1,1,1,1,1,1,0,1,1,1,1,1,1,0,0,0,0,0,0;

Schedule:Day:Hourly, 0eb42a9c-9f69-437c-8e44-a644f9d0f833, Fraction,0,1,0,1,0,0,0,1,0,0,1,1,1,1,1,1,1,1,1,0,1,1,0,0;

Schedule:Day:Hourly, cc054fa4-927c-48b5-b4d1-0b32a42e0e8f, Fraction,0,0,0,0,0,0,0,0,0,0,1,1,1,1,1,1,1,1,1,1,0,0,0,0;

Schedule:Day:Hourly, 4fa9f995-de47-4123-a1da-32c2a08db216, Fraction,0,0,0,0,0,0,0,0,1,1,1,1,1,1,1,1,1,0,0,0,0,0,0,0;

Schedule:Day:Hourly, 887c1822-9f3f-442f-8bea-9f947e944539, Fraction,0,0,0,0,0,0,0,0,0,0,1,0,0,1,1,1,1,1,1,0,0,0,0,0;

Schedule:Day:Hourly, 0ca156a9-b41b-49d3-a22c-2b8f75c5e3b2, Fraction,0,0,0,1,1,0,0,0,0,1,1,1,1,0,0,0,0,0,0,0,0,0,1,0;

Schedule:Day:Hourly, cdd0423b-c66a-42fd-802f-416a4eafe290, Fraction,0,1,1,1,1,0,1,1,0,0,0,0,1,1,1,1,1,1,1,0,0,0,0,0;

Schedule:Day:Hourly, 66b6a9bc-8655-4daf-ba28-a4bfb877e586, Fraction,0,1,0,0,1,0,1,0,0,1,1,1,1,1,1,1,1,1,1,1,0,0,0,0;

Schedule:Day:Hourly, 4d12dda1-ec74-40b6-84e2-90b7e16cccc9, Fraction,0,0,0,0,0,0,0,0,0,1,1,1,1,1,1,1,1,1,1,1,1,0,0,0;

Schedule:Day:Hourly, 33bcaca4-d62e-4873-9205-4194c9205e9a, Fraction,0,0,0,0,0,0,0,0,1,1,1,1,1,1,1,1,1,1,1,1,1,0,0,0;

Schedule:Day:Hourly, 1b23769c-9912-4016-bf26-049d1da81ba1, Fraction,0,0,0,0,0,0,0,1,0,1,0,0,1,1,1,0,0,1,0,0,0,0,0,0;

Schedule:Day:Hourly, 82cd46c8-fc09-489d-8852-c2707a102208, Fraction,0,0,0,1,1,1,1,0,0,0,0,1,1,1,1,1,1,0,0,0,0,0,0,0;

Schedule:Day:Hourly, 466d0833-84f6-4f6c-9566-8e4586e9d61c, Fraction,0,1,0,0,0,0,0,0,0,1,1,1,1,1,1,1,1,1,1,0,1,0,0,0;

Schedule:Day:Hourly, 104041d9-cf41-494f-8531-4ac044de259c, Fraction,0,0,0,0,0,0,0,0,0,0,0,1,1,1,1,1,1,0,1,1,1,1,1,0;

Schedule:Day:Hourly, 2cb8c39a-c21a-472c-afed-46cdfc975710, Fraction,0,1,1,0,1,0,0,1,0,0,0,1,1,1,0,0,1,0,0,1,1,1,1,0;

Schedule:Day:Hourly, 8704b07b-d6a4-4b2c-8d69-87c8568015b9, Fraction,1,1,1,1,1,1,1,1,0,0,0,1,1,1,1,1,1,1,0,0,0,0,1,1;

Schedule:Day:Hourly, ad24687e-ee7d-4634-8f33-3769a78130fb, Fraction,0,1,0,0,1,1,1,1,0,0,1,1,1,0,0,0,0,1,0,1,1,0,1,1;

Schedule:Day:Hourly, 326ffdde-8fd3-41f8-940d-64e04a4a2eff, Fraction,1,1,1,1,0,0,0,0,0,0,0,1,1,0,1,1,1,1,1,0,0,0,0,0;

Schedule:Day:Hourly, e23509dc-1e6b-4dcd-a806-1d8a15a982b1, Fraction,0,0,0,0,1,1,1,1,1,0,1,1,1,0,1,1,1,0,0,0,0,0,0,0;

Schedule:Day:Hourly, 9c8c7157-9895-4de7-a80b-528a7f400532, Fraction,0,1,1,1,1,1,1,1,0,0,0,1,1,1,1,1,0,0,0,0,0,0,0,0;

Schedule:Day:Hourly, cb58139b-61e1-48d8-b714-2857315486d5, Fraction,0,0,0,0,0,0,0,0,0,0,0,1,1,0,1,1,1,1,0,0,0,0,0,0;

Schedule:Day:Hourly, 3d8a0fe0-3f60-4a94-9286-e59dd67f832b, Fraction,0,0,0,0,0,0,0,0,0,1,0,1,1,1,1,1,1,1,0,0,0,0,0,0;

Schedule:Day:Hourly, 19f96bac-4eb8-444d-b63b-577d2acb7bf2, Fraction,0,0,0,0,0,0,0,0,0,0,1,1,1,0,1,1,1,1,0,0,0,0,0,0;

Schedule:Day:Hourly, 1a82f468-baec-40a9-8862-642df44536eb, Fraction,0,0,0,0,0,0,1,1,1,0,1,0,0,0,0,0,0,0,0,1,0,0,0,0;

Schedule:Day:Hourly, c953ed02-1326-45c0-ada6-a1da0aa19310, Fraction,1,0,0,0,1,0,0,0,0,0,1,1,0,1,1,1,1,0,0,0,0,0,0,0;

Schedule:Day:Hourly, 6b59d7ae-dbb3-4dd7-a191-161a56a18069, Fraction,0,0,0,0,0,0,0,0,0,1,1,1,0,0,1,1,1,1,0,0,0,0,0,0;

Schedule:Day:Hourly, 41480300-d2e8-45cd-ac1f-e24d05f81de1, Fraction,0,0,0,0,0,0,0,0,0,1,1,1,1,1,1,1,1,1,1,0,0,0,0,0;

Schedule:Day:Hourly, 0655b9da-9a35-4af4-9b1b-e392613f76c2, Fraction,0,0,0,0,0,0,0,0,0,1,1,1,0,0,1,1,1,0,0,0,0,0,0,0;

Schedule:Day:Hourly, 6ec52194-3fcb-4ce8-a9b7-7dabf0a4ccd8, Fraction,0,0,0,0,1,0,0,0,0,0,1,1,1,1,1,1,1,1,0,0,0,0,1,0;

Schedule:Day:Hourly, cc874c5d-adb5-40c8-a2b7-ba86e56e8c24, Fraction,0,1,1,1,1,1,1,0,0,0,1,1,1,0,0,0,0,0,1,1,1,1,1,1;

Schedule:Day:Hourly, 34252c3c-99b2-45fa-9e65-818269cba713, Fraction,1,1,1,1,1,1,0,0,0,0,1,1,1,0,1,1,1,1,0,0,0,0,0,0;

Schedule:Day:Hourly, ee6a48ba-f6e8-4a4d-a342-0cf44f816c2d, Fraction,0,1,1,1,1,1,1,1,0,0,0,0,0,0,1,1,0,0,0,0,0,0,0,0;

Schedule:Day:Hourly, 790219e2-9bcc-4f55-afc6-903160baa57f, Fraction,1,0,1,1,1,1,1,1,0,0,1,1,1,1,1,1,1,1,1,1,1,1,1,1;

Schedule:Day:Hourly, 4874cf86-287b-463b-8b64-cb114fd8627f, Fraction,1,1,1,1,1,1,1,1,1,1,0,0,1,0,0,0,0,0,0,0,0,0,0,1;

Schedule:Day:Hourly, cd7dfd49-4afa-489d-b7de-dade7d03bfb6, Fraction,1,1,1,1,1,1,1,1,0,0,0,0,0,0,1,1,0,0,0,0,1,0,0,1;

Schedule:Day:Hourly, ebaf5f8b-b01f-46fb-81ec-98a16710fb94, Fraction,1,1,1,1,1,1,1,1,0,0,0,0,0,0,1,1,0,0,0,0,0,0,0,0;

Schedule:Day:Hourly, d2d7cca7-833c-4756-9e39-c34c57ad9d6f, Fraction,0,1,0,1,1,1,1,1,0,0,0,1,1,1,0,0,0,0,0,0,0,0,0,0;

Schedule:Day:Hourly, 1358614b-db8a-4271-8781-99c0d811afea, Fraction,0,1,1,1,1,1,1,1,1,0,0,1,1,1,1,1,1,0,0,0,0,0,0,0;

Schedule:Day:Hourly, 88538c19-4e1c-4c93-968e-a84e0a2e2905, Fraction,0,0,0,1,1,1,1,1,0,0,0,1,1,1,1,1,1,1,1,0,0,0,0,0;

Schedule:Day:Hourly, 30746125-26cb-44f9-9219-ecabeb5c5564, Fraction,0,0,0,1,1,1,1,1,0,0,1,1,1,0,1,1,1,0,1,1,1,1,1,1;

Schedule:Day:Hourly, d1fe743a-b2dd-4d72-be1e-1c55caf8a9c1, Fraction,1,0,1,1,1,1,1,1,0,0,0,0,1,0,1,0,0,0,0,0,0,0,0,0;

Schedule:Day:Hourly, 79e8083e-5084-4368-801e-cd49d4bbfd0f, Fraction,0,0,0,0,0,0,0,0,0,0,0,0,0,1,1,1,0,0,0,0,0,0,0,0;

Schedule:Day:Hourly, 75c11437-9738-445e-9ba1-95cfc2f177c1, Fraction,0,0,0,0,1,0,0,0,0,0,0,1,1,1,1,1,1,0,0,0,0,0,0,0;

Schedule:Day:Hourly, ef5ef648-948e-422a-b66a-496e329441ce, Fraction,0,0,0,0,1,0,0,0,0,1,1,0,0,1,1,1,1,1,1,1,1,1,1,1;

Schedule:Day:Hourly, 75e30a45-5e2a-4b1b-a777-9d0ea8587a04, Fraction,1,1,1,1,1,1,1,1,1,0,0,1,0,1,1,1,1,1,1,0,0,0,0,1;

Schedule:Day:Hourly, d4812dce-92e4-4fd0-843d-48cd88d0cfdb, Fraction,1,1,1,1,1,1,1,1,0,0,0,0,0,0,1,1,1,0,0,0,0,0,0,0;

Schedule:Day:Hourly, b9ae9906-f4e1-43b9-8f97-aaea69d61698, Fraction,0,0,1,0,0,0,0,1,0,0,0,0,0,1,1,1,1,0,0,0,0,0,1,0;

Schedule:Day:Hourly, 5ccce423-96fe-4502-9b43-87c16520157c, Fraction,0,0,1,1,1,1,1,1,0,0,0,1,1,1,1,1,1,1,0,0,0,0,0,0;

Schedule:Day:Hourly, ee5123e2-f31d-4230-ae78-fba15c64a974, Fraction,0,0,1,1,1,1,1,1,0,0,1,1,1,1,1,1,1,1,1,0,0,0,0,0;

Schedule:Day:Hourly, c53bd331-8f9c-419d-a3a8-7bead11b2d16, Fraction,0,0,1,1,1,1,1,1,0,1,1,1,1,1,1,1,1,1,0,0,0,0,0,0;

Schedule:Day:Hourly, 1559fa51-9286-4c10-a57b-1f7c5a28632d, Fraction,0,0,1,1,1,1,1,1,0,0,1,1,1,1,1,1,1,1,0,0,0,0,0,0;

Schedule:Day:Hourly, 1b8d56f9-f2b4-464c-baf6-a44d808d749f, Fraction,0,0,1,1,1,1,1,1,0,1,0,1,1,1,1,1,1,1,0,0,0,0,0,0;

Schedule:Day:Hourly, cc486075-51d8-404e-b9ea-f0e77f34440d, Fraction,0,0,0,0,0,0,0,0,0,0,0,1,1,1,1,1,1,1,0,0,0,0,0,0;

Schedule:Day:Hourly, e3c926c1-ab64-47a5-b6c1-cde8f6a3eff9, Fraction,0,0,0,0,0,0,0,0,0,1,1,1,1,1,1,1,1,0,0,0,0,0,0,0;

Schedule:Day:Hourly, 83cfeb36-5ad1-4462-a527-89aeb552d20d, Fraction,0,1,1,1,1,1,1,1,1,1,1,1,0,0,0,1,1,0,0,0,0,0,0,0;

Schedule:Day:Hourly, 20db4f2f-f3b0-41af-a0df-482547954cae, Fraction,0,1,0,1,1,1,1,1,1,0,0,0,1,1,1,1,1,0,0,0,0,0,0,1;

Schedule:Day:Hourly, c4b0594f-9bde-40f1-be48-02ebd69c7348, Fraction,0,0,0,1,1,1,0,1,0,0,0,1,0,0,0,0,0,0,0,0,0,0,0,0;

Schedule:Day:Hourly, b0ad4eb1-137e-417d-afb5-233ba4f6d5e7, Fraction,1,1,1,1,1,1,1,1,0,0,0,1,1,0,0,0,0,0,0,0,0,0,0,0;

Schedule:Day:Hourly, a361a9e9-5ea1-4cc8-858e-a30e088409c0, Fraction,0,0,0,0,0,0,1,1,0,0,0,0,1,1,1,0,0,0,0,0,0,0,0,0;

Schedule:Day:Hourly, 6dc5f9fe-6689-4feb-bc3f-969f1dab456c, Fraction,0,0,1,1,1,1,1,1,0,0,0,0,1,1,1,1,0,0,0,0,0,0,0,0;

Schedule:Day:Hourly, ae740c22-83ad-4d72-822a-72d738c84b4c, Fraction,0,0,0,1,1,1,0,0,0,0,0,1,1,1,1,1,1,1,0,0,0,0,0,0;

Schedule:Day:Hourly, 2fb2d763-5f3b-4b91-a97d-dab8fc16594a, Fraction,0,0,0,1,1,1,0,0,0,0,1,1,1,1,1,1,1,1,1,0,0,0,0,0;

Schedule:Day:Hourly, 0c2f5271-cff0-4a69-a1f3-5080dd4e2f9a, Fraction,0,0,0,0,0,1,1,0,0,0,0,0,0,0,0,0,0,0,0,0,0,0,0,0;

Schedule:Day:Hourly, 8a9a608f-8df8-49a6-b34f-d6e6eb8d9ef6, Fraction,0,0,0,0,0,0,0,0,0,0,0,0,1,0,1,1,1,1,0,0,0,0,0,0;

Schedule:Day:Hourly, fe0c08fd-7af7-435e-b2c1-ca638bd41060, Fraction,0,0,0,0,0,1,1,1,0,0,0,1,1,1,1,1,0,0,0,0,0,0,0,0;

Schedule:Day:Hourly, 227444cc-a8b7-47ed-ba15-db845e38a4f7, Fraction,0,0,0,0,0,0,0,0,0,1,0,1,1,1,0,1,0,0,0,0,0,0,0,0;

Schedule:Day:Hourly, 60699407-8e47-45ec-8a04-47a0ae7f4457, Fraction,0,0,0,0,1,0,1,0,0,0,1,1,1,0,1,1,1,0,0,0,1,1,1,1;

Schedule:Day:Hourly, 3f977091-cb24-4c87-a0b1-3a36739f0a4a, Fraction,1,1,0,0,1,1,1,1,0,0,0,0,0,0,0,0,0,0,0,0,0,0,0,0;

Schedule:Day:Hourly, c6a5d389-0457-4692-96d1-bd8dbc1a82d5, Fraction,0,0,0,0,0,1,0,1,0,0,0,1,1,1,1,1,0,0,0,1,1,1,1,1;

Schedule:Day:Hourly, 1c58df69-9b14-49e4-90e6-423c74abc6ae, Fraction,1,1,1,0,0,1,1,1,0,0,0,0,0,0,0,0,0,0,0,0,0,0,0,0;

Schedule:Day:Hourly, a8ad3596-634a-48eb-bad2-500617258e52, Fraction,0,0,0,0,1,0,1,1,1,0,0,0,1,0,0,0,0,0,0,0,0,0,0,0;

Schedule:Day:Hourly, 65845a05-8a8c-42bf-95d9-b6d2e368aa02, Fraction,0,0,0,1,0,0,0,0,0,0,0,1,1,0,1,1,0,1,0,0,0,0,0,0;

Schedule:Day:Hourly, 6a86ab29-eecf-41bd-8819-4c06628de85e, Fraction,0,0,0,0,0,0,0,0,0,0,0,1,1,0,0,0,0,0,0,0,0,0,0,1;

Schedule:Day:Hourly, 3a49a71b-682b-49d9-b452-f680439e5dcd, Fraction,1,0,1,1,1,1,1,1,0,0,0,1,1,1,1,1,0,0,0,0,0,0,0,0;

Schedule:Day:Hourly, 452d2c8e-1c76-4fc6-a22d-1cf568360426, Fraction,0,1,1,1,1,1,1,1,0,0,1,0,0,0,1,0,0,0,0,0,1,1,1,1;

Schedule:Day:Hourly, 6c2d03cb-d23c-459b-b72a-ef676cd13fe8, Fraction,1,1,1,0,1,0,0,0,0,0,0,0,1,1,1,1,0,1,0,0,0,0,0,0;

Schedule:Day:Hourly, f1d434eb-759d-49dc-a6db-a1d232a3d517, Fraction,0,0,0,0,0,0,1,1,0,0,0,1,1,0,0,0,0,0,0,0,0,0,0,0;

Schedule:Day:Hourly, e31e8667-a67c-4b4b-a876-83b78cb6bc00, Fraction,0,1,1,1,1,1,0,1,1,1,1,0,0,0,0,0,0,0,0,0,0,0,0,0;

Schedule:Day:Hourly, 06767887-9e3e-48a4-9b25-a64a89916fff, Fraction,0,0,0,1,0,1,1,0,0,0,0,1,0,1,1,1,1,1,1,0,0,0,0,0;

Schedule:Day:Hourly, 85f6f0f1-c189-452c-a53e-85cf6df4ea3a, Fraction,0,0,0,1,1,1,0,0,0,0,0,0,1,1,1,1,0,0,0,0,0,0,0,0;

Schedule:Day:Hourly, 3e483427-98b3-411f-ac16-c0e1e9afc8e8, Fraction,0,1,1,1,1,0,1,1,0,0,0,1,1,1,1,1,1,1,1,0,0,0,0,0;

Schedule:Day:Hourly, 9e9e7059-73f8-4409-8d30-6832d868240e, Fraction,0,0,0,0,0,0,0,0,0,0,1,1,1,1,1,1,1,1,1,0,0,0,0,0;

Schedule:Day:Hourly, 9c5a30d7-7394-47f4-a253-b72e66a3f584, Fraction,0,0,1,1,1,0,0,1,0,0,1,1,1,1,1,1,1,1,1,1,0,0,0,0;

Schedule:Day:Hourly, a78ecda9-0306-484a-8aea-17141c411591, Fraction,0,0,0,0,0,0,0,1,0,0,1,1,1,1,1,1,0,1,1,1,1,1,0,0;

Schedule:Day:Hourly, 7ea33b74-88dc-449d-9851-80bf0418e2d4, Fraction,0,0,0,0,0,0,0,0,0,1,0,1,1,1,0,0,0,0,0,0,0,0,1,1;

Schedule:Day:Hourly, 625a3683-c8b4-4b30-aea2-6b91c24a47e7, Fraction,1,1,1,1,1,1,1,1,1,0,1,0,0,1,0,0,0,0,0,1,0,0,0,1;

Schedule:Day:Hourly, 2bad0aaa-cb40-4398-a2d7-199ee08973b5, Fraction,1,1,1,1,1,1,1,1,0,0,0,1,1,1,0,0,1,1,0,0,0,0,0,1;

Schedule:Day:Hourly, 9e489189-e3b2-47f3-a015-2c17a11543ca, Fraction,0,0,0,0,0,0,0,0,0,0,1,0,1,1,1,0,0,0,0,0,0,0,0,0;

Schedule:Day:Hourly, 06c740f1-3dce-4cfa-a1ef-f8ef9041f529, Fraction,0,1,1,1,1,1,1,1,1,0,1,1,1,1,1,0,0,0,0,1,0,1,1,1;

Schedule:Day:Hourly, 2038bb20-7ec9-4fac-9f7d-42093d49aa63, Fraction,0,0,0,0,1,1,1,1,1,1,1,0,0,0,0,0,0,0,1,0,0,0,0,0;

Schedule:Day:Hourly, e8e5f328-0ffc-40e8-bad2-47fa7c69a7a0, Fraction,0,1,0,0,1,0,0,1,0,0,1,1,1,0,0,1,0,0,0,0,0,0,0,0;

Schedule:Day:Hourly, ab9d70c9-feed-43cc-a1ca-82c74ac5aac6, Fraction,0,0,0,0,1,1,1,1,0,0,1,1,0,0,0,0,0,0,0,0,0,0,0,0;

Schedule:Day:Hourly, c313d9a8-e4d4-46cf-8e09-92cba6c11744, Fraction,0,0,0,0,0,1,0,0,0,1,0,1,1,1,1,1,0,0,0,0,0,0,0,1;

Schedule:Day:Hourly, 1e1fcf91-df0a-4968-9e03-a562fc365c59, Fraction,1,1,1,1,1,1,1,1,0,1,1,1,1,1,1,1,0,0,0,0,0,0,0,0;

Schedule:Day:Hourly, c76d2652-0fbc-4c57-97b5-168db8e2e222, Fraction,0,0,0,0,0,0,0,0,0,1,1,1,1,1,1,0,0,0,0,0,0,0,0,0;

Schedule:Day:Hourly, bef53187-a794-4334-a5d4-e8a3bd96adbc, Fraction,0,1,0,0,1,1,1,1,0,1,1,1,1,1,1,1,1,1,0,0,0,0,0,0;

Schedule:Day:Hourly, bfcd59e4-541e-416e-a329-7b4c50d4a226, Fraction,0,0,1,1,1,1,1,1,0,0,0,0,0,1,0,1,1,0,0,0,0,0,0,0;

Schedule:Day:Hourly, 54bdd4b4-fd4a-4fdf-8d53-a77e674ee045, Fraction,0,0,1,1,1,1,1,1,1,1,0,0,0,0,0,0,0,0,0,0,1,0,0,0;

Schedule:Day:Hourly, 853f86ae-d952-4bb6-8e8f-37ad2bf2c0d8, Fraction,1,1,1,1,1,0,0,0,0,0,0,1,1,1,1,1,1,0,0,0,0,0,0,0;

Schedule:Day:Hourly, 866934fb-4abc-4012-b7ae-2652c55b91b5, Fraction,0,1,1,1,1,1,1,0,0,0,0,0,0,0,0,0,1,1,1,1,1,1,1,1;

Schedule:Day:Hourly, a6358ca5-8168-450f-9a34-7eae4738b643, Fraction,0,1,0,0,1,0,0,0,0,0,0,0,1,0,0,0,0,0,0,0,0,0,0,0;

Schedule:Day:Hourly, 846b58e2-839b-41f2-9d04-9d4daf408af0, Fraction,0,1,1,1,1,1,1,1,1,1,0,0,0,0,0,1,1,0,0,0,0,0,0,0;

Schedule:Day:Hourly, 07174647-541f-4974-a7f1-0633f2ed7e0b, Fraction,1,1,1,0,1,1,1,1,0,0,1,1,1,1,1,1,1,1,0,0,0,0,0,0;

Schedule:Day:Hourly, fdad6677-eeb7-48c9-a6c1-936a7f41ad86, Fraction,0,1,0,0,0,0,0,0,0,0,1,0,0,0,1,1,1,1,1,0,0,0,0,1;

Schedule:Day:Hourly, 13c64a9b-017a-4c70-a607-ce5a9e7dd3fd, Fraction,1,1,1,1,1,0,1,1,1,0,0,0,0,1,1,0,0,0,0,0,0,0,0,1;

Schedule:Day:Hourly, 73687f7e-3e00-4d5f-a7a0-0f2641d9cb89, Fraction,1,1,1,1,1,1,0,0,0,0,0,1,1,1,1,1,1,0,0,0,0,0,0,0;

Schedule:Day:Hourly, 22ff2306-5a50-48e3-85ab-f2fed33de9ad, Fraction,0,1,1,1,1,1,1,0,0,0,0,1,1,1,1,0,0,0,0,0,0,0,0,0;

Schedule:Day:Hourly, fa407cf4-4832-4826-8720-46d485bcae77, Fraction,0,0,0,0,0,0,0,0,0,1,1,1,1,1,1,1,1,1,0,0,0,0,0,0;

Schedule:Day:Hourly, 156e0c7b-1eaf-4df0-9f48-5414e7d6628d, Fraction,0,0,1,1,1,1,1,0,0,0,1,1,1,1,0,0,0,0,0,0,0,0,0,0;

Schedule:Day:Hourly, 7b8f0ee8-4ade-426c-8fbe-d5206c386751, Fraction,1,1,1,1,1,1,1,1,1,0,0,0,0,0,0,0,0,0,1,1,1,1,1,1;

Schedule:Day:Hourly, a7e8581c-efec-4a9a-9356-f6e272b09e3f, Fraction,1,1,1,1,1,1,1,0,0,1,1,1,0,0,0,0,0,0,0,0,0,0,0,0;

Schedule:Day:Hourly, 94eb93d3-130e-461e-8785-8ffef0f72ca0, Fraction,1,1,1,1,1,1,1,1,0,1,1,0,0,0,1,1,0,0,0,0,0,0,0,0;

Schedule:Day:Hourly, b3390f4d-d3f4-4eb7-a936-c38300da486d, Fraction,0,0,0,1,1,1,0,0,0,1,1,1,1,1,1,1,1,1,0,0,0,0,0,0;

Schedule:Day:Hourly, 876e857f-4959-494d-b16b-601beafb1ec9, Fraction,0,0,0,0,0,0,0,1,1,1,1,0,0,0,0,0,0,0,0,0,0,0,0,1;

Schedule:Day:Hourly, b657c9e7-afca-4ae8-a33d-938b3d86fdab, Fraction,1,1,1,1,1,1,1,1,0,0,0,1,1,1,1,0,0,0,1,1,1,1,1,1;

Schedule:Day:Hourly, 99ade35d-b1a4-4347-aa3a-364cd4bf2245, Fraction,1,1,1,1,1,1,1,1,1,1,1,1,1,1,1,0,0,0,0,1,1,1,0,1;

Schedule:Day:Hourly, 396e36f4-99d6-439f-9333-bd7a06f5599f, Fraction,1,1,1,1,1,1,1,1,0,0,1,1,0,1,0,0,0,0,0,0,0,0,0,1;

Schedule:Day:Hourly, 8a300b51-7f5b-4121-af67-3004d40a0ba0, Fraction,1,1,1,1,1,1,1,0,0,0,1,0,0,0,0,0,0,0,0,1,1,1,1,1;

Schedule:Day:Hourly, b5f8ef1c-e175-4f04-ad3b-50d1e2fd0c38, Fraction,1,1,1,1,1,0,0,0,0,0,1,1,1,1,1,1,1,0,0,0,0,0,0,0;

Schedule:Day:Hourly, ea110a93-a8a7-48fb-9a26-a39735e4c26a, Fraction,1,1,1,1,1,1,1,1,1,1,0,0,0,0,0,0,1,0,0,0,0,0,0,0;

Schedule:Day:Hourly, 699edc9a-12e3-47d9-8ab7-0dbe984ce1c0, Fraction,1,1,1,1,1,1,1,1,1,1,1,1,0,0,0,0,0,0,0,0,0,1,1,1;

Schedule:Day:Hourly, aa8c40c5-6c1d-46fd-86f9-c95dc07664db, Fraction,1,1,1,1,1,1,1,0,0,0,1,1,1,1,1,1,1,0,0,0,0,1,1,1;

Schedule:Day:Hourly, 7f96201e-5005-44d2-910d-170d13ff5579, Fraction,1,1,1,1,1,1,1,1,0,0,1,1,1,1,0,1,1,1,1,1,1,1,1,1;

Schedule:Day:Hourly, bc255aef-9901-45d0-8e55-61953f3fa468, Fraction,1,1,1,1,1,1,1,1,1,0,0,0,0,1,0,0,0,0,0,0,0,0,0,0;

Schedule:Day:Hourly, 7231988e-57d6-4459-b775-c103dc271099, Fraction,1,1,1,1,1,1,1,1,0,1,1,1,1,1,1,1,1,0,1,1,1,1,1,1;

Schedule:Day:Hourly, f4f25312-34b6-42cd-8456-3a78661d2827, Fraction,1,1,1,1,1,1,1,1,0,0,1,1,1,1,1,1,0,0,0,0,0,0,1,1;

Schedule:Day:Hourly, aa974862-c187-42e8-aa48-ace689d6e0a7, Fraction,1,1,1,1,1,1,1,0,0,0,1,1,1,0,0,0,0,1,1,1,1,1,1,1;

Schedule:Day:Hourly, 8bb454cf-9091-48a1-8fa2-bb9467c1582d, Fraction,1,1,1,1,1,1,1,1,0,0,1,1,1,1,1,1,1,0,0,0,0,0,0,1;

Schedule:Day:Hourly, fb6d8b10-64c6-4768-8def-1ae53cd30cf7, Fraction,1,1,1,1,0,1,1,0,0,0,0,1,1,1,1,1,0,0,0,0,0,0,0,0;

Schedule:Day:Hourly, 3e10dd48-ad7e-42ca-beae-7cfd3233a09a, Fraction,0,0,0,0,0,1,1,1,0,0,0,0,0,1,0,0,0,0,0,0,0,0,0,0;

Schedule:Day:Hourly, 2ad3789e-b596-4a6c-b76c-c62c5585e1f8, Fraction,1,1,1,1,1,1,1,1,0,0,1,1,1,1,0,0,0,0,0,0,0,0,0,0;

Schedule:Day:Hourly, 9b26ad11-a201-43fa-a19f-e1e0bf61d2db, Fraction,0,0,0,0,0,0,0,1,0,0,0,0,0,1,0,0,0,0,0,0,0,0,1,1;

Schedule:Day:Hourly, 334d533c-fd0b-4512-b939-61f84e1eb9e3, Fraction,1,1,1,1,1,1,1,1,0,0,0,1,0,0,0,0,0,0,0,0,0,1,1,1;

Schedule:Day:Hourly, f11f1636-b269-4f87-aff8-27aa935bf4b3, Fraction,1,1,1,1,1,1,1,1,0,0,0,0,1,1,1,0,0,0,0,0,0,0,1,1;

Schedule:Day:Hourly, 136ad646-8ec3-4805-849a-e9ef29558a26, Fraction,1,1,1,1,1,1,1,1,1,0,0,0,0,0,0,0,1,1,1,1,1,1,1,1;

Schedule:Day:Hourly, 6a7f27cd-f468-4a68-8100-83bf9b7b8bf5, Fraction,1,1,1,1,1,1,1,1,1,0,0,0,1,1,0,0,0,0,0,1,1,1,1,1;

Schedule:Day:Hourly, f8fbcafc-a4ec-44cb-9543-f6413bac8f72, Fraction,1,1,1,1,1,1,1,1,0,1,0,0,1,1,1,1,1,1,1,1,1,1,1,1;

Schedule:Day:Hourly, 57b254bd-a5f7-4dba-b707-0136e4121f7f, Fraction,1,1,1,1,1,1,1,1,0,0,1,0,0,0,0,0,0,0,1,1,1,1,1,1;

Schedule:Day:Hourly, e6d8b54d-22ea-47ef-b462-662480a5f86f, Fraction,1,1,1,1,1,1,1,1,1,0,0,0,0,1,0,0,0,0,1,1,1,1,1,1;

Schedule:Day:Hourly, 3bb82a51-4f6c-4a6f-97fe-e665a4aa5010, Fraction,1,1,1,1,1,1,1,1,1,0,0,0,1,0,0,0,0,0,0,0,0,0,0,1;

Schedule:Day:Hourly, 8bff091a-fcc9-41ec-8b7f-395e2fa86ead, Fraction,1,1,1,1,1,1,1,1,1,0,0,0,1,1,1,1,0,1,1,1,1,1,1,1;

Schedule:Day:Hourly, 25042a8d-6a95-4ecf-8721-55ece700b690, Fraction,1,1,1,1,1,1,1,1,0,0,1,1,0,0,0,0,1,1,1,1,1,1,1,1;

Schedule:Day:Hourly, c0a39ba0-22a6-48f2-9603-f38976585fb6, Fraction,1,1,1,1,1,1,1,1,0,0,0,0,1,1,1,1,1,1,1,1,1,1,1,1;

Schedule:Day:Hourly, 4d63b46f-a2e4-4106-9002-6263c44a7f26, Fraction,1,1,1,1,1,1,1,1,0,0,0,0,0,0,0,1,1,1,1,1,1,1,1,1;

Schedule:Day:Hourly, 62624d2a-b093-448d-818b-a2770e4de26c, Fraction,1,1,1,1,1,1,1,1,1,1,1,1,1,1,1,0,0,0,1,1,1,1,1,1;

Schedule:Day:Hourly, ae34816d-fa09-40f2-aeef-f178f9d61306, Fraction,1,1,1,1,1,1,1,1,0,1,1,1,1,1,1,1,1,1,1,1,1,1,1,1;

Schedule:Day:Hourly, 303a5f83-3299-448e-8582-a0a791d3c55a, Fraction,1,1,1,1,1,1,1,1,1,0,0,0,0,0,0,0,1,1,0,0,0,0,1,1;

Schedule:Day:Hourly, 170add1a-4e6b-4bc4-a46f-dc19ef3f801b, Fraction,1,1,1,1,1,1,1,1,1,0,0,0,0,0,0,0,0,0,0,1,1,1,1,1;

Schedule:Day:Hourly, 0c8cbfae-1c65-4d1d-aca7-c0e751a450cf, Fraction,1,1,1,1,1,1,1,0,0,0,1,1,1,1,1,1,1,0,0,0,0,0,0,0;

Schedule:Day:Hourly, 7746b621-f62f-439d-ae02-4ff435249f25, Fraction,0,1,1,1,1,1,1,1,0,0,1,0,1,1,1,0,0,0,0,0,0,0,0,1;

Schedule:Day:Hourly, 31543a46-a7a2-4402-9643-570e702bb547, Fraction,1,1,1,1,1,1,1,1,0,0,0,1,1,1,0,0,0,1,1,1,1,1,1,1;

Schedule:Day:Hourly, aaf1e1fa-7e53-470f-801d-3128046d0bec, Fraction,1,1,1,1,1,1,1,1,1,0,0,0,0,0,0,0,0,0,0,0,0,1,1,1;

Schedule:Day:Hourly, be8e28cc-f7c6-43ef-8a21-5cf6166ca115, Fraction,1,1,1,1,1,1,1,1,0,0,1,1,1,1,1,1,1,1,0,0,0,0,1,1;

Schedule:Day:Hourly, b73ce967-46ce-4edc-85e8-febf9f99aa86, Fraction,1,1,1,1,1,1,1,1,0,0,1,0,0,0,1,1,1,1,1,1,1,1,1,1;

Schedule:Day:Hourly, b610989e-2758-475f-9f85-ccb0c86ddb02, Fraction,1,1,1,1,1,1,1,1,0,0,0,0,0,0,0,0,0,1,1,1,1,1,1,1;

Schedule:Day:Hourly, 82d0f90d-c65d-44a7-9e74-8d477d8cee77, Fraction,1,1,1,1,1,1,1,1,0,0,0,1,1,0,0,0,0,0,0,0,1,1,1,1;

Schedule:Day:Hourly, 89a3181f-b557-4ab6-a07d-6371fc984d98, Fraction,1,1,1,1,1,1,1,1,0,0,1,1,1,1,0,0,1,0,0,0,0,1,1,1;

Schedule:Day:Hourly, 38f146cc-59da-4eaa-81e2-e8e668f91803, Fraction,1,1,1,1,1,1,1,1,1,0,1,1,1,1,1,1,1,0,0,0,0,0,1,1;

Schedule:Day:Hourly, 5b1c1975-4151-48e6-9ac6-8ba9c77f3377, Fraction,1,1,1,1,1,1,1,1,0,0,1,1,1,0,1,1,0,0,1,1,1,1,1,1;

Schedule:Day:Hourly, 0c48338b-0f44-49a6-a413-403ef1229694, Fraction,1,1,1,1,1,1,1,1,1,0,0,0,0,1,0,0,0,0,0,0,0,1,1,1;

Schedule:Day:Hourly, b21f65cc-6db9-41ce-b9b3-661f24a5cef7, Fraction,1,1,1,1,1,1,1,1,0,0,0,1,1,1,1,0,0,0,0,0,0,0,0,0;

Schedule:Day:Hourly, d622cf19-3c4d-4d92-be32-7cfa2f02850c, Fraction,0,1,1,1,1,1,1,0,0,0,1,1,1,1,0,0,0,0,0,0,1,1,1,0;

Schedule:Day:Hourly, a71769e2-206c-44b1-9f6b-b75f0fdc65b7, Fraction,0,0,0,0,0,0,0,0,0,0,0,1,1,0,0,1,0,0,0,0,0,0,0,0;

Schedule:Day:Hourly, 8b11b80b-1080-4a83-b137-275c54478cba, Fraction,0,0,0,0,0,0,0,0,0,0,0,1,1,1,1,0,0,0,0,0,0,0,0,0;

Schedule:Day:Hourly, 56469a80-e013-4a92-9f71-e630c50a624b, Fraction,0,0,0,0,0,0,0,0,0,0,0,1,0,0,0,0,0,0,0,0,0,0,0,0;

Schedule:Day:Hourly, c13edd3c-6abc-4d13-99b2-f0cd3f8531af, Fraction,0,0,0,0,1,0,0,0,0,0,0,1,1,1,0,0,0,0,0,0,0,0,0,0;

Schedule:Day:Hourly, fe588b7b-e3bb-4130-86a5-2bafded251f4, Fraction,0,0,0,0,1,0,0,0,0,0,0,1,1,1,0,1,1,1,0,0,1,1,1,1;

Schedule:Day:Hourly, 48f8865f-526d-44bb-9988-9b8ac543002f, Fraction,1,1,1,1,1,1,1,1,1,1,1,1,1,1,1,1,1,1,1,1,1,1,1,1;

Schedule:Day:Hourly, 9543784f-d80a-40e1-b67c-fa366f8e773e, Fraction,1,1,1,0,1,1,1,1,0,1,1,1,1,1,1,1,1,1,1,1,1,1,1,1;

Schedule:Day:Hourly, 8189c87b-fb73-492f-ba1e-3e619645b730, Fraction,1,1,1,1,1,1,1,1,1,0,0,0,1,1,0,0,1,1,1,1,1,1,1,1;

Schedule:Day:Hourly, b96a0f96-60c8-4087-b917-cecf00efb78f, Fraction,1,1,1,1,1,1,1,1,1,0,0,1,1,0,1,0,1,1,0,1,0,0,1,0;

Schedule:Day:Hourly, 4250ed1e-f6c4-492f-9a93-31eaa60eeaf2, Fraction,0,1,1,1,1,1,1,1,1,1,1,1,1,0,0,0,0,0,0,0,1,1,1,1;

Schedule:Day:Hourly, e512527d-2b8d-4b7c-a07a-5fc6b4983035, Fraction,1,1,1,1,1,1,1,1,1,1,1,1,0,0,0,0,0,0,0,1,1,1,1,1;

Schedule:Day:Hourly, 0812a75d-8cc2-4e2e-a2a1-db448d9b0435, Fraction,1,1,1,1,1,1,1,1,1,1,1,1,1,1,0,1,1,1,0,1,1,1,1,1;

Schedule:Day:Hourly, adbb301d-1f44-4516-ac46-d7cf895459b6, Fraction,1,1,1,1,1,1,1,1,1,0,0,0,0,0,0,0,0,0,0,0,1,1,1,1;

Schedule:Day:Hourly, 9c8e3532-d700-49d4-9ff1-133c041be157, Fraction,1,1,1,1,1,1,1,1,0,0,0,0,1,1,1,1,0,0,0,0,0,0,1,0;

Schedule:Day:Hourly, 6d1f6ef8-28d9-4efa-836f-79dbe2c9a36d, Fraction,1,1,1,1,1,1,1,1,1,1,0,1,1,1,1,0,0,0,0,0,1,1,1,0;

Schedule:Day:Hourly, 96fcb3aa-37ba-4f07-9de2-6795088a92d4, Fraction,1,1,1,1,1,1,1,1,1,0,0,0,0,1,1,1,1,1,1,1,1,1,1,1;

Schedule:Day:Hourly, 7904f1b2-d521-44ed-bbdf-6285749ec256, Fraction,1,1,1,1,1,1,1,1,1,1,0,0,0,0,0,0,0,1,0,1,1,1,1,1;

Schedule:Day:Hourly, 97285481-3ed5-409f-8473-52abdef88083, Fraction,1,1,1,1,1,1,1,1,0,0,0,0,0,0,0,0,0,0,0,1,1,1,1,1;

Schedule:Day:Hourly, 2258e41e-dced-4f4e-8afe-0ba8e83b7f2a, Fraction,1,1,1,1,1,1,1,1,0,0,0,0,1,0,1,0,1,1,1,1,0,1,1,1;

Schedule:Day:Hourly, 9af88808-9c1e-49e8-9cd4-60bb524454be, Fraction,1,1,1,1,1,1,1,1,0,0,0,0,1,0,0,0,0,0,0,0,0,1,1,1;

Schedule:Day:Hourly, b6af22a2-ebc6-49fc-93c6-3f74d9213b32, Fraction,1,1,1,1,1,1,1,1,0,0,0,1,0,1,1,0,0,0,0,0,0,0,0,1;

Schedule:Day:Hourly, 853783de-594a-4ca5-839f-67888f320912, Fraction,1,1,0,0,1,1,0,1,0,0,0,0,1,0,0,0,0,0,0,0,0,0,0,0;

Schedule:Day:Hourly, 86c57143-ffed-4de5-b267-bbec8844d14e, Fraction,0,0,1,0,0,0,1,0,0,0,0,0,0,1,1,0,0,0,0,0,0,0,0,0;

Schedule:Day:Hourly, 8db33876-b01f-445c-bbda-69fa527fc7fc, Fraction,0,0,0,0,0,0,0,0,0,0,0,1,1,1,1,1,0,0,0,0,0,0,1,0;

Schedule:Day:Hourly, 99cdd683-29cf-42e6-a1ab-6bc93bd9379a, Fraction,1,1,0,0,1,0,0,1,0,0,0,1,1,1,1,0,0,0,0,0,0,0,0,0;

Schedule:Day:Hourly, f853c6d1-c679-45db-a18b-ef365238a26a, Fraction,0,1,0,1,1,1,1,1,0,0,0,1,1,1,1,1,0,0,0,0,0,0,0,0;

Schedule:Day:Hourly, e4086513-5e96-4223-bd2c-a2ea429b8da7, Fraction,0,1,1,1,1,1,1,1,0,0,0,0,1,1,1,1,0,0,0,0,0,0,0,0;

Schedule:Day:Hourly, b149aa5f-44e4-4c6e-bea9-ae0ec9cfe6cc, Fraction,0,0,0,1,1,0,0,1,0,0,0,1,1,1,1,1,0,0,0,0,0,0,0,0;

Schedule:Day:Hourly, fd4a921d-8031-40be-b9cd-2fede9e5bcd7, Fraction,0,1,1,1,1,0,0,1,0,0,0,0,0,0,0,0,0,0,0,0,0,0,1,1;

Schedule:Day:Hourly, 242caa8b-292f-4fd6-83fe-2419b4fcbaa0, Fraction,0,0,0,0,0,0,0,0,1,1,1,1,1,0,1,1,1,1,1,1,1,1,1,1;

Schedule:Day:Hourly, 8872b3b9-6b74-4764-9203-c7af2d8d7e58, Fraction,0,0,0,0,0,0,0,0,1,1,1,1,1,1,1,1,1,1,1,1,1,1,1,1;

Schedule:Day:Hourly, 80e7f182-8e6b-4cf9-81f2-8b54cf934f74, Fraction,0,0,0,0,0,0,0,0,1,1,1,0,0,0,0,0,1,1,1,1,1,1,1,0;

Schedule:Day:Hourly, 280b9013-2529-4c83-876d-60a7d899b302, Fraction,0,0,0,0,0,0,0,0,1,1,1,1,1,1,1,1,1,1,1,1,1,1,1,0;

Schedule:Day:Hourly, 21f3e12a-8bb5-45a5-8b98-88bbdb92a5cf, Fraction,0,0,0,0,0,0,0,0,1,1,1,1,0,0,0,1,1,1,1,1,1,1,1,1;

Schedule:Day:Hourly, 700d3dc2-1daa-4162-9819-68588370b7c9, Fraction,0,0,0,0,0,0,0,0,1,1,1,1,1,1,1,1,1,1,1,1,1,1,0,0;

Schedule:Day:Hourly, 2f4c3851-428f-489b-b8c2-8acd69c8a203, Fraction,0,0,0,0,0,0,0,1,1,1,1,1,0,0,0,0,1,1,1,1,1,1,1,0;

Schedule:Day:Hourly, 93a13f0a-5453-43bf-a4cc-f7758c70d85d, Fraction,0,0,0,0,0,0,0,0,1,1,1,1,0,0,0,0,0,1,1,1,1,1,1,1;

Schedule:Day:Hourly, 9d40143a-77d7-46c1-8842-3e8f36fb11ef, Fraction,0,0,0,0,0,0,0,0,1,1,1,1,0,0,0,0,0,1,1,1,1,1,1,0;

Schedule:Day:Hourly, e4d28607-be3a-4269-9077-16d0b565d130, Fraction,0,0,0,0,0,1,1,1,1,1,0,0,0,0,1,1,1,1,1,1,1,1,0,0;

Schedule:Day:Hourly, b8513b11-2085-4212-b8a0-1915e5e4852a, Fraction,0,0,0,0,0,1,1,1,1,1,1,1,1,1,1,0,0,0,0,0,0,0,0,0;

Schedule:Day:Hourly, 577b8b11-9ca1-4a3c-a535-22eb28eda6a7, Fraction,0,0,0,0,0,0,0,1,1,1,1,1,1,1,1,1,1,1,1,1,1,1,0,0;

Schedule:Day:Hourly, f6c0290b-f168-4f71-a3e5-9d39f792f41a, Fraction,0,0,0,0,0,0,0,1,1,1,1,1,1,1,1,1,1,1,1,1,1,1,1,0;

Schedule:Day:Hourly, e4820338-eadc-4991-9d79-561da2ff5540, Fraction,0,0,0,0,0,0,0,0,0,0,0,1,1,1,1,1,1,1,1,1,0,0,0,0;

Schedule:Day:Hourly, 0d4d7cef-0c09-494d-bd70-30b315ba6317, Fraction,0,0,0,0,1,1,1,1,1,1,1,1,1,1,1,1,1,1,1,1,1,0,0,0;

Schedule:Day:Hourly, 39102e39-9f37-4643-a8d7-831e45734003, Fraction,0,0,0,0,0,0,0,0,0,0,0,0,0,0,1,1,1,1,1,1,0,0,0,0;

Schedule:Day:Hourly, 5c59df08-4e01-4b74-b762-5e1f38ab7e75, Fraction,0,0,0,0,0,0,1,1,1,1,1,1,1,1,1,1,1,1,1,1,1,1,0,0;

Schedule:Day:Hourly, 955c474c-94ec-4041-9b5b-626578bdde5e, Fraction,1,0,0,0,0,0,0,0,1,1,1,1,1,0,1,1,1,1,0,0,0,0,0,0;

Schedule:Day:Hourly, fca18aea-ae3f-483f-a880-4a6e60d3d69b, Fraction,0,0,0,0,0,0,1,1,1,1,1,1,0,0,1,1,0,0,0,0,0,0,0,0;

Schedule:Day:Hourly, 9d69d1fb-89ec-40e5-a0a3-dc124eee0b6d, Fraction,0,0,0,1,1,1,1,1,1,1,1,1,1,1,1,1,1,1,1,1,1,1,1,1;

Schedule:Day:Hourly, 6acdcc98-a2eb-4fca-89b9-e4101c7bbca2, Fraction,0,0,0,0,0,0,0,0,1,1,1,1,0,0,0,0,1,1,1,1,1,1,1,1;

Schedule:Day:Hourly, 9eb614cf-cbeb-45bc-b212-fec050e18418, Fraction,1,1,1,1,1,1,1,1,0,0,0,0,0,0,0,0,1,1,1,1,1,1,1,1;

Schedule:Day:Hourly, 57bc117e-511c-463d-a84e-62161f8eea0d, Fraction,1,1,1,0,0,0,0,0,1,1,1,1,1,1,1,1,1,1,1,1,1,1,1,1;

Schedule:Day:Hourly, d462cfdc-ceb4-444a-ab17-58dc5313c741, Fraction,1,1,1,0,0,0,0,0,1,1,1,1,1,0,0,0,1,1,1,1,1,1,1,1;

Schedule:Day:Hourly, 78571d4b-901b-4394-807b-3ef781ed1552, Fraction,1,0,0,0,0,0,0,0,1,1,1,1,1,0,0,1,1,1,1,1,1,1,1,1;

Schedule:Day:Hourly, d736b063-5ba9-47a6-8a76-caa50a315da6, Fraction,1,1,1,1,0,0,0,0,1,1,1,1,1,1,1,1,1,1,1,1,1,1,1,1;

Schedule:Day:Hourly, 153f513e-a50a-4279-a93e-526f5ad599b4, Fraction,0,0,0,0,0,0,0,0,0,1,0,0,0,0,0,0,0,1,1,0,0,0,0,0;

Schedule:Day:Hourly, 1bd28044-60ce-4fda-ac99-fdc492d57fda, Fraction,0,0,0,0,0,0,0,0,1,1,1,0,0,0,0,0,1,0,0,0,0,0,0,0;

Schedule:Day:Hourly, 06429072-9f5b-426d-96f2-a6e21612ca66, Fraction,1,0,0,0,0,0,0,0,1,1,1,1,0,0,0,1,1,1,1,1,1,1,1,1;

Schedule:Day:Hourly, f5ae07b9-4e0e-4793-80ce-39d2ed8dcdfd, Fraction,1,1,1,1,1,1,1,1,1,1,1,1,0,1,1,1,1,1,1,1,1,1,1,1;

Schedule:Day:Hourly, 36b3e3c3-761e-468a-8db3-e94200cdddae, Fraction,1,0,0,0,0,0,0,0,1,1,1,1,1,1,1,1,1,1,1,1,1,1,1,1;

Schedule:Day:Hourly, 006a399c-14a9-4c2b-bffb-193928b4ea7f, Fraction,1,0,1,1,0,1,1,1,1,1,1,0,0,0,0,0,0,1,1,1,1,1,1,1;

Schedule:Day:Hourly, c06d4321-f35a-4a3d-89ed-7400a32f1a98, Fraction,1,1,1,1,1,1,1,1,1,1,1,1,0,1,0,1,1,1,1,1,1,1,1,1;

Schedule:Day:Hourly, 4b47e6ec-f45b-473b-8c51-71b213485b8b, Fraction,1,1,1,1,1,1,1,1,1,1,1,0,1,1,0,0,1,1,1,1,1,1,1,0;

Schedule:Day:Hourly, 232de2d6-8b68-449a-8efd-5c0979cc6e71, Fraction,1,1,1,0,0,0,0,0,1,1,1,0,0,0,0,1,1,1,1,1,1,0,0,1;

Schedule:Day:Hourly, f6d276fd-bb70-413e-bf26-ebf5b835cbef, Fraction,1,0,0,0,0,0,0,0,1,1,1,0,0,0,0,0,1,1,0,1,1,0,0,0;

Schedule:Day:Hourly, c13028d9-af3b-431b-aa8b-efb87829d8f1, Fraction,0,0,0,0,0,0,0,0,1,1,1,0,0,0,0,1,1,1,1,0,1,1,0,0;

Schedule:Day:Hourly, bf53ff28-cf6a-477a-b63f-36e9e53f5c6f, Fraction,0,0,0,0,0,0,0,0,1,1,1,0,0,0,0,0,0,1,0,0,0,0,0,0;

Schedule:Day:Hourly, c895807a-3d21-4e76-a36f-ecd21fa94e83, Fraction,0,0,1,1,0,0,1,1,1,1,1,0,1,1,0,0,1,1,1,1,1,1,1,1;

Schedule:Day:Hourly, 037318f9-4800-44ab-bd47-414e27741afd, Fraction,1,0,0,1,0,0,1,1,1,1,1,0,0,0,0,0,0,1,1,1,1,1,1,1;

Schedule:Day:Hourly, 334274d6-626b-4fa3-be2b-e2ee557d7934, Fraction,1,1,1,1,0,0,0,0,1,1,1,0,0,0,0,0,1,1,1,1,1,1,1,1;

Schedule:Day:Hourly, 42d46cba-7990-4cfb-b059-e0f80acdc77b, Fraction,0,0,0,0,0,0,0,0,1,1,1,0,0,0,0,0,1,1,1,1,1,1,1,1;

Schedule:Day:Hourly, 69fa762c-876c-4541-9587-764d1f9b7212, Fraction,1,1,0,0,0,0,0,1,1,1,1,0,0,0,0,0,0,1,1,1,1,1,1,1;

Schedule:Day:Hourly, 4d9686c7-c11b-4d68-8862-4696d2e5cbfa, Fraction,1,1,1,1,1,1,1,1,1,1,1,1,1,0,1,1,1,1,1,1,1,1,1,1;

Schedule:Day:Hourly, 2352ef0e-d8f8-4a3e-aca4-5dd024985782, Fraction,1,1,1,1,1,1,1,1,1,1,1,0,0,0,1,1,1,1,1,1,1,1,1,1;

Schedule:Day:Hourly, 3644d9d3-bc8b-4ed5-8779-a4c642d42942, Fraction,1,1,1,1,1,1,1,1,1,1,1,1,0,0,0,0,1,1,1,1,1,1,1,1;

Schedule:Day:Hourly, b3235b2a-a6cb-43f0-ac05-48e7652d6d96, Fraction,1,1,1,0,0,0,0,0,1,1,1,0,0,0,0,0,1,1,1,1,1,1,1,1;

Schedule:Day:Hourly, 18a3bd5f-47a6-4892-8076-323b2be1ca53, Fraction,0,0,0,1,0,0,0,0,1,1,1,0,0,0,0,0,0,1,1,1,1,1,1,0;

Schedule:Day:Hourly, 85ff0050-29cb-46e8-a5eb-cabda52b50aa, Fraction,0,0,0,0,0,0,0,0,1,1,1,0,0,0,0,0,0,1,1,1,1,1,1,0;

Schedule:Day:Hourly, ae1ecf15-1084-4e47-88a4-f17c3a49f46b, Fraction,0,0,0,0,1,1,1,0,1,1,0,0,0,0,0,0,0,1,1,1,1,1,1,1;

Schedule:Day:Hourly, 8f1c3262-e522-4f94-a2ae-299d9c6a7196, Fraction,0,0,0,0,1,1,1,1,1,1,1,0,0,0,0,0,0,1,1,1,1,1,1,1;

Schedule:Day:Hourly, e5edf7e0-5368-42f5-95af-c216270d9659, Fraction,1,1,1,1,1,1,1,1,1,1,1,0,0,0,0,0,1,1,1,1,1,0,0,0;

Schedule:Day:Hourly, b5d357a1-8314-43e8-a10e-bc74d087c04f, Fraction,0,0,0,0,0,0,0,0,0,0,1,1,1,1,0,0,1,1,1,0,0,1,0,1;

Schedule:Day:Hourly, 1a4d0a5a-1133-47c0-9b7d-b36d9e2b4071, Fraction,1,0,0,0,0,0,0,0,0,0,0,0,1,0,1,0,0,0,0,0,0,0,0,0;

Schedule:Day:Hourly, 066fd758-c551-483f-a112-adf7aa8fb0a6, Fraction,0,0,0,0,0,0,0,0,1,1,1,0,1,0,0,1,1,1,1,0,1,0,0,0;

Schedule:Day:Hourly, 05a9b5f6-810d-47a2-a3ed-fe107d475e08, Fraction,0,0,0,0,0,0,0,0,1,1,1,0,0,0,0,0,0,0,1,1,1,1,1,1;

Schedule:Day:Hourly, b5ff56aa-d027-42e1-8063-1a4b9b949efa, Fraction,0,1,0,0,0,1,0,0,1,1,1,0,0,0,0,0,0,1,1,1,1,1,1,1;

Schedule:Day:Hourly, 3fbb4b4b-7d12-4c38-b141-6a57f31a8585, Fraction,1,1,1,1,1,0,0,1,1,1,1,1,0,0,0,0,1,1,1,1,0,0,0,1;

Schedule:Day:Hourly, 9d6c9c50-e997-44db-adb6-a0ac55039b57, Fraction,1,0,1,0,0,0,0,0,1,1,1,0,0,0,0,0,0,1,1,1,1,1,1,1;

Schedule:Day:Hourly, 9be0e496-c445-4172-aaa3-8a0c3828cc00, Fraction,1,0,0,0,0,0,1,0,1,1,1,0,0,0,0,0,0,0,1,1,1,1,1,1;

Schedule:Day:Hourly, a25a4cb3-8277-466d-bc28-6e34a6a1bf11, Fraction,1,1,1,0,0,0,0,0,1,1,1,0,0,0,0,0,0,0,1,1,1,1,1,1;

Schedule:Day:Hourly, fb2bd9ce-6e85-4f82-824a-344e0373d4f4, Fraction,1,1,1,1,0,0,0,0,1,1,1,0,0,0,0,0,0,0,1,1,1,1,1,1;

Schedule:Day:Hourly, a24bd756-5db2-4730-a3ff-4bac1dc508e8, Fraction,1,1,0,0,0,0,0,0,1,1,1,0,0,0,0,0,1,0,0,0,1,0,0,0;

Schedule:Day:Hourly, 93acc58e-2984-477b-96ec-e6b5e4bd9964, Fraction,1,1,1,1,0,0,0,0,1,1,0,0,0,0,0,0,0,1,1,1,1,1,1,1;

Schedule:Day:Hourly, 4c4025aa-1b59-4673-a211-13a43275a5ce, Fraction,1,1,1,1,1,0,1,1,1,0,0,0,0,0,0,0,0,0,1,1,1,1,1,1;

Schedule:Day:Hourly, bbfd8704-3f12-452f-a2de-e789eb264e7d, Fraction,1,1,1,0,0,0,0,1,1,1,1,0,0,0,0,0,0,0,1,1,1,1,1,1;

Schedule:Day:Hourly, 69c778ee-ad82-4a17-ae32-eec0acce2ed4, Fraction,0,0,0,1,0,1,0,0,1,1,1,1,0,0,0,0,0,1,1,1,1,1,1,1;

Schedule:Day:Hourly, 3e314de4-fed0-4109-bcf1-40dd21c43e1f, Fraction,1,1,0,0,0,0,0,0,1,0,0,0,0,0,1,0,1,1,1,0,1,1,0,0;

Schedule:Day:Hourly, e7872297-94a7-4e20-bf98-ba976dddfc42, Fraction,0,0,0,0,0,0,1,0,1,0,0,0,0,0,0,0,0,0,1,1,1,1,1,1;

Schedule:Day:Hourly, c9ddcc8f-a62a-4196-ac9a-cbf49597c9bd, Fraction,1,0,0,0,0,0,1,0,1,1,1,0,0,0,1,1,1,1,1,1,1,1,1,0;

Schedule:Day:Hourly, 58d47014-3902-404f-85a6-8752349e91da, Fraction,0,0,0,0,0,0,0,0,1,0,0,0,0,0,0,1,0,1,1,0,0,0,0,0;

Schedule:Day:Hourly, 0e386a50-967a-4e45-9722-5726dc8b3d5c, Fraction,0,0,0,0,0,0,0,1,1,1,1,1,0,0,0,0,1,1,1,1,1,1,0,1;

Schedule:Day:Hourly, 1ec70d49-c478-47f6-8d83-612ad67377bc, Fraction,1,1,0,0,0,0,0,0,1,0,0,0,0,0,0,0,0,0,0,1,1,1,1,1;

Schedule:Day:Hourly, 456b7953-78fc-427c-b887-cc51dd529c12, Fraction,0,0,0,0,0,0,0,0,1,1,0,0,0,1,1,1,1,1,1,0,1,0,0,0;

Schedule:Day:Hourly, 1449c8e7-5cf6-408e-a04d-d48553cc021b, Fraction,0,0,0,0,0,0,0,0,1,1,1,0,0,0,0,0,1,1,1,1,1,0,0,0;

Schedule:Day:Hourly, dc6cbf57-bb9a-42d2-8180-9084d0853010, Fraction,0,0,0,0,0,0,0,0,1,0,0,1,0,0,0,1,1,1,1,0,0,0,0,0;

Schedule:Day:Hourly, ac7a5315-6f59-453e-9a04-592885788e47, Fraction,0,0,0,0,0,0,0,0,1,1,0,0,0,0,0,0,0,0,1,1,1,1,1,1;

Schedule:Day:Hourly, 8799438e-f491-4fd7-8f17-76c7f29f8963, Fraction,1,0,0,1,0,0,0,0,1,0,0,0,0,0,0,0,1,0,0,0,0,0,0,0;

Schedule:Day:Hourly, 78e269ee-e15a-4aa0-9b9c-6fd5be1c0f96, Fraction,0,0,1,0,0,0,0,0,1,1,0,0,0,1,1,1,0,0,1,0,0,0,0,0;

Schedule:Day:Hourly, 4bc56e08-4805-48ed-ac3c-3ba30fb5cf02, Fraction,0,0,0,0,0,0,0,0,1,1,0,0,0,0,0,1,0,0,0,0,0,0,0,0;

Schedule:Day:Hourly, 66ae71b3-5fef-4788-89ea-ead35eab32b6, Fraction,0,0,0,0,0,0,0,0,0,1,0,0,0,0,0,1,0,1,1,0,0,0,0,0;

Schedule:Day:Hourly, f6117868-4076-436a-aa05-60d556583e42, Fraction,0,0,0,0,0,0,0,0,0,0,0,0,0,0,1,1,1,1,1,1,1,0,0,0;

Schedule:Day:Hourly, 0bdd16f8-71b7-49d3-8f41-14c0188b070c, Fraction,0,0,0,0,1,1,1,1,1,1,0,0,0,0,0,0,0,1,1,1,1,1,1,1;

Schedule:Day:Hourly, 90210d46-59be-4b5e-9d5a-54b2e3817cc9, Fraction,1,0,0,0,0,0,0,0,1,1,1,0,0,0,0,0,0,0,1,1,1,1,1,1;

Schedule:Day:Hourly, e5194301-1140-4e8a-8045-4166d4c1d656, Fraction,1,0,1,1,0,1,0,1,1,1,0,0,0,0,0,0,0,1,1,1,1,1,1,1;

Schedule:Day:Hourly, 272ffa50-bdf1-4916-9a10-0ef0e99bee37, Fraction,1,0,0,0,0,0,0,0,1,0,0,0,0,0,0,0,0,0,1,1,1,1,1,1;

Schedule:Day:Hourly, 5ce848ea-7873-4464-ad07-784a31485b0d, Fraction,1,1,1,1,0,1,1,1,1,0,0,0,0,0,0,0,0,0,0,1,1,1,1,1;

Schedule:Day:Hourly, 0c8c8c70-1e18-4386-ada0-b9fce5886457, Fraction,1,1,1,1,0,0,1,0,1,1,0,0,1,0,0,0,0,0,0,0,0,0,0,0;

Schedule:Day:Hourly, beb91ba3-486f-4b92-9567-8b6934d09ce1, Fraction,0,0,0,0,0,0,0,0,1,1,1,0,0,0,0,0,0,1,1,1,1,1,1,1;

Schedule:Day:Hourly, 9ec6fbab-d7d9-4848-83fa-96ad669310ca, Fraction,1,0,0,0,0,0,0,0,1,1,0,0,0,1,1,1,1,1,1,1,1,1,1,0;

Schedule:Day:Hourly, c1ca12dd-965b-430f-85ea-fc69450b76d0, Fraction,0,0,0,0,0,0,0,0,1,1,0,0,0,0,0,0,0,1,0,1,1,1,1,1;

Schedule:Day:Hourly, 55a45316-a5b5-43f9-ba11-1434bb3350c8, Fraction,1,1,1,1,0,0,1,1,1,1,0,0,1,1,1,0,0,1,1,0,0,0,0,0;

Schedule:Day:Hourly, c5fb7837-cee5-4773-8f23-d572d38e60d4, Fraction,0,0,0,0,0,0,0,0,1,1,1,0,0,0,0,1,1,0,0,0,0,0,0,0;

Schedule:Day:Hourly, 6d0628d5-a701-4b8d-92b0-0a0db2d5582b, Fraction,0,0,0,0,0,0,0,0,1,1,1,0,0,0,0,1,0,0,1,1,1,1,1,1;

Schedule:Day:Hourly, 87c9f976-7bef-49ca-bcc1-24d1c82ba78e, Fraction,1,1,1,1,0,1,1,1,1,0,1,0,0,0,1,0,0,0,0,0,0,0,0,0;

Schedule:Day:Hourly, c619797e-8c78-4ec9-aab0-8db9ae88e1b3, Fraction,0,0,0,0,0,0,0,0,0,1,1,0,0,0,0,0,1,1,1,1,1,1,1,1;

Schedule:Day:Hourly, 15c48057-cdaa-4c1e-b34d-b6a3ace96618, Fraction,0,0,0,0,0,0,0,0,1,0,0,0,0,0,0,1,1,1,1,1,1,1,1,1;

Schedule:Day:Hourly, 43ea1b43-3d18-4afb-af93-784f6ab0beb4, Fraction,0,0,0,1,0,0,1,0,1,1,1,0,0,0,1,1,1,1,1,1,1,1,1,1;

Schedule:Day:Hourly, 63abdeba-3697-46d4-b716-3c9091515307, Fraction,1,1,1,1,0,1,0,0,0,0,0,0,0,0,0,0,0,0,1,1,1,1,1,1;

Schedule:Day:Hourly, 36577367-8818-4d01-a969-cc43c089bfce, Fraction,1,1,1,1,1,0,0,0,0,0,0,0,0,0,0,0,0,0,0,1,1,1,1,1;

Schedule:Day:Hourly, c732a36e-6452-4bb9-a8cc-f34c6cdf0164, Fraction,1,1,1,1,0,1,0,1,1,0,0,0,0,0,0,0,0,0,0,1,1,1,1,1;

Schedule:Day:Hourly, 05c52a12-90f0-4a08-bc72-a0a75808271d, Fraction,1,1,1,1,0,0,0,0,1,0,0,0,0,0,0,0,0,0,0,1,1,1,1,1;

Schedule:Day:Hourly, 1262f729-b5bd-4000-b097-076664bb81f3, Fraction,1,1,1,1,1,1,1,1,0,0,0,0,0,0,1,1,1,1,1,0,1,1,1,1;

Schedule:Day:Hourly, 830ba331-8fea-43ab-8cdd-315891035a0a, Fraction,1,0,1,1,0,1,0,0,1,0,0,0,0,1,0,1,1,1,1,1,1,1,1,0;

Schedule:Day:Hourly, 6a059418-7a64-4ab3-acba-69e1f18d83f2, Fraction,0,1,0,0,0,0,0,1,1,0,0,0,1,1,0,0,0,1,1,1,1,1,1,1;

Schedule:Day:Hourly, 16af22e6-c4d5-4200-b5b4-0ee0870e6ac9, Fraction,0,0,1,0,0,0,0,0,1,0,0,0,0,0,0,1,1,1,1,1,1,1,1,1;

Schedule:Day:Hourly, 5e089451-4814-41ea-bf13-6d7c503ce9b7, Fraction,1,0,0,0,0,0,0,0,1,0,0,0,1,0,0,0,1,0,1,0,0,1,0,1;

Schedule:Day:Hourly, b44b91d7-2ca5-4663-947f-0a39daf67ff1, Fraction,0,0,0,0,0,0,0,0,1,1,1,1,0,1,1,1,1,1,1,1,1,1,0,1;

Schedule:Day:Hourly, 343997f4-304e-4a60-99aa-0b12ea5d9bfc, Fraction,0,0,1,0,0,0,0,0,1,0,0,0,0,0,0,0,0,0,1,1,1,1,1,1;

Schedule:Day:Hourly, be8c7df5-c9eb-4776-b5e8-cd2f2f6af068, Fraction,1,1,1,1,1,1,1,1,1,0,0,1,1,0,0,1,1,1,1,1,1,0,0,0;

Schedule:Day:Hourly, f8c0ebfd-63bb-488d-bc0d-096c7455feba, Fraction,0,0,0,0,0,0,1,1,1,1,0,0,0,0,0,0,0,0,1,1,1,1,1,1;

Schedule:Day:Hourly, 8d703f3d-682d-446b-be05-2317396a9aec, Fraction,1,1,1,1,1,1,1,1,1,1,0,0,0,0,0,0,0,0,1,1,1,1,1,1;

Schedule:Day:Hourly, 1cb607fe-b668-46d6-8b1d-a0c4b0c1e679, Fraction,1,1,1,0,0,0,1,1,1,1,1,1,0,0,1,1,0,0,1,1,1,0,0,0;

Schedule:Day:Hourly, c487122f-645f-4a16-a368-7377901b233b, Fraction,0,0,0,0,0,0,0,0,1,0,0,0,1,1,1,1,1,1,1,1,1,1,1,0;

Schedule:Day:Hourly, 7dc89d92-691c-48ac-b993-a26a2f9ad274, Fraction,0,0,0,0,0,0,0,0,0,1,1,1,0,0,0,0,1,1,1,1,1,1,0,0;

Schedule:Day:Hourly, 01335171-d1d4-4a3b-86d6-7d2f3df92008, Fraction,0,0,0,0,0,0,0,0,1,1,0,0,0,0,0,0,0,1,1,1,1,1,1,1;

Schedule:Day:Hourly, b34f0eb2-90cd-43d1-823a-626b11ca9441, Fraction,0,0,0,0,0,0,0,0,1,1,0,0,0,0,1,1,0,0,0,0,0,0,0,0;

Schedule:Day:Hourly, 234a80dd-cecc-47b9-9d6e-1de514a08926, Fraction,0,0,0,0,0,0,0,0,1,1,0,0,0,0,1,1,1,0,0,0,0,0,0,0;

Schedule:Day:Hourly, c34010a0-cd20-4836-a2ce-547b23c9e2cb, Fraction,1,1,1,1,0,0,0,0,1,1,1,1,1,1,1,1,1,1,1,1,1,1,0,0;

Schedule:Day:Hourly, 7c986be8-eda2-4f04-ab15-49d0f8c09470, Fraction,0,0,0,0,0,0,0,0,0,0,0,0,0,0,0,0,0,0,0,1,1,1,1,1;

Schedule:Day:Hourly, 2d25294e-69e3-4af4-af79-82d4f7d021e2, Fraction,1,1,1,1,1,1,1,1,1,1,0,0,0,0,0,1,1,1,1,1,1,0,0,0;

Schedule:Day:Hourly, ea94b579-91f6-428e-aca5-84c0627131d9, Fraction,0,0,0,0,0,0,0,0,0,1,1,1,0,0,0,0,0,1,1,1,1,1,1,1;

Schedule:Day:Hourly, 8858cd73-b079-49c4-b992-cf25b8aad62f, Fraction,1,0,1,1,1,0,0,0,1,1,0,0,0,1,1,1,1,1,1,1,1,1,1,1;

Schedule:Day:Hourly, 4e01d101-2c15-43ea-93b6-f84307259577, Fraction,0,0,0,0,0,0,0,0,0,1,1,1,1,1,1,1,0,0,1,1,1,1,1,1;

Schedule:Day:Hourly, 577d8bf8-07a3-4fce-9596-48f5057fed9e, Fraction,1,1,1,0,0,1,1,1,1,0,0,0,1,1,1,1,1,1,1,1,1,1,1,1;

Schedule:Day:Hourly, 85275a0a-f92a-4921-a728-82bf84d55d10, Fraction,1,1,1,1,1,1,1,1,1,0,0,0,1,1,1,1,1,1,1,1,0,0,0,0;

Schedule:Day:Hourly, 4daf1f13-e36d-4509-9d57-3c483b7daa69, Fraction,0,0,0,0,0,0,0,0,1,1,0,0,0,0,0,0,0,0,0,1,1,1,1,1;

Schedule:Day:Hourly, d00c75e3-6b55-4346-9201-494d92ade5e0, Fraction,1,0,0,0,0,0,1,1,1,0,0,0,0,0,0,0,0,1,1,1,1,1,1,1;

Schedule:Day:Hourly, 4d67df63-3c53-4893-9025-b4f96ac69288, Fraction,1,0,0,0,0,0,0,0,0,1,1,0,0,0,0,0,1,1,1,1,1,1,1,1;

Schedule:Day:Hourly, 58ba47c4-48d9-4e02-a9db-d2e731bfd943, Fraction,1,1,1,1,1,1,1,1,1,1,1,1,0,0,0,0,1,1,1,1,1,1,1,0;

Schedule:Day:Hourly, 8316bbfc-87ed-4bd4-976c-2a06d9dd7673, Fraction,1,1,1,1,1,1,1,1,1,1,1,1,0,0,0,0,0,0,1,1,1,1,1,1;

Schedule:Day:Hourly, 9b7994fd-9aac-488b-9f1d-791f5b1483ad, Fraction,1,1,0,0,0,0,0,0,1,1,1,1,1,1,1,1,1,1,1,1,1,1,1,1;

Schedule:Day:Hourly, d80fda9c-559b-4ae2-8eb9-ce5cc5cafe1c, Fraction,1,1,1,1,1,1,1,1,1,1,1,1,1,1,1,1,1,1,1,1,1,1,0,0;

Schedule:Day:Hourly, 010a44cc-3b6c-4e6f-9cd2-fb3767aa58db, Fraction,1,1,1,0,0,0,0,0,0,1,1,1,1,1,1,1,0,1,1,1,1,1,1,1;

Schedule:Day:Hourly, 98a3a4f3-3f47-4515-9283-eef103d64e59, Fraction,1,1,1,0,0,0,0,0,1,1,0,0,0,0,0,0,0,1,1,1,1,1,1,1;

Schedule:Day:Hourly, 1905fa12-d31d-4158-b61b-f9c0c9f3be79, Fraction,1,0,0,0,0,0,0,1,1,1,0,0,0,0,0,0,0,0,1,1,1,1,1,1;

Schedule:Day:Hourly, 9a356ddb-dc14-4f16-8ea2-ec67598ed0c8, Fraction,1,0,0,0,0,0,0,0,0,0,0,1,0,0,0,0,0,0,1,1,1,1,1,1;

Schedule:Day:Hourly, c767553a-97e1-4b39-8703-f20b3cf654ab, Fraction,1,0,1,0,1,1,1,0,1,1,0,0,0,0,0,0,0,0,0,1,0,0,1,1;

Schedule:Day:Hourly, e7f5cb95-7a3c-45ff-85ef-78ffada0b6de, Fraction,1,1,1,1,1,1,1,1,1,1,0,0,0,0,0,0,0,0,0,0,1,1,1,1;

Schedule:Day:Hourly, 590fae25-cfea-4fe1-bd63-a2702dc7ba06, Fraction,1,1,1,1,1,1,1,1,1,1,0,1,1,0,0,0,0,0,0,1,1,1,1,1;

Schedule:Day:Hourly, 0fa6b8d4-eb48-462a-a77d-89cad7ed56fd, Fraction,1,1,1,0,0,1,1,1,1,0,0,0,0,1,1,1,1,1,1,1,1,1,0,1;

Schedule:Day:Hourly, 47e5b6e4-65b1-49c8-9a8e-41ffe943bb0c, Fraction,1,0,0,0,0,1,0,0,1,1,1,1,0,0,0,0,0,0,0,1,1,1,1,1;

Schedule:Day:Hourly, 12e9f7ea-fed1-4241-a5b7-e65aceae6cc3, Fraction,1,0,1,1,0,1,0,1,1,0,0,0,0,0,0,0,0,0,0,0,1,1,1,1;

Schedule:Day:Hourly, 347714f8-8455-484d-bdf5-c625e010c198, Fraction,1,1,1,1,1,1,1,0,1,0,1,1,0,0,0,1,1,0,1,1,1,1,1,1;

Schedule:Day:Hourly, 0572ef20-a390-479e-aac2-e2bd75119206, Fraction,1,1,1,0,0,0,0,1,1,1,1,0,0,0,0,0,0,1,1,1,1,1,1,1;

Schedule:Day:Hourly, 13c056e4-98f7-4954-87d5-c9f95b12894a, Fraction,1,0,1,1,1,1,1,1,1,0,0,0,0,0,0,0,0,0,0,1,0,1,1,1;

Schedule:Day:Hourly, 34dfd50b-91f9-46b8-949f-d66a4fab3e53, Fraction,1,1,1,1,1,1,1,1,1,1,1,0,0,0,0,0,0,1,0,0,0,0,0,1;

Schedule:Day:Hourly, c7350810-e79f-4fcf-ae44-969a8aaa2427, Fraction,1,0,0,1,0,1,1,0,1,1,1,0,0,0,1,1,0,1,1,0,0,0,0,1;

Schedule:Day:Hourly, 08f556b0-6eed-4a21-af0c-ad8b9d1763de, Fraction,0,0,0,0,0,0,0,0,1,1,1,0,0,0,0,0,0,0,1,1,1,1,0,0;

Schedule:Day:Hourly, 578dc937-cb4e-41e2-8c60-884323978601, Fraction,1,0,1,1,0,0,0,0,1,1,0,0,0,1,1,1,1,0,1,0,0,1,0,0;

Schedule:Day:Hourly, d3b7cb04-da91-4b46-8091-ccbdfe5f455c, Fraction,0,0,0,0,1,1,1,1,1,1,1,0,0,1,0,0,0,0,0,1,1,1,1,1;

Schedule:Day:Hourly, f579e0a6-c022-4fed-9fb4-2855e2aa9918, Fraction,1,1,1,1,0,0,0,0,0,1,0,0,0,1,0,0,0,1,1,1,1,1,1,1;

Schedule:Day:Hourly, 95bc8792-7927-4679-a6e8-41c13d626097, Fraction,1,0,0,0,0,0,0,0,1,1,1,0,0,0,0,0,1,1,1,1,1,1,1,1;

Schedule:Day:Hourly, 331f02c9-058b-423a-87a0-ffaa14d87081, Fraction,1,1,1,1,1,1,1,1,1,1,1,0,0,1,0,0,0,0,1,1,1,1,1,1;

Schedule:Day:Hourly, 83799835-b422-48c9-92bc-706e9ecc9e0d, Fraction,1,1,1,1,1,1,1,1,1,0,1,0,0,0,0,0,0,0,1,1,1,1,1,1;

Schedule:Day:Hourly, 3867379b-6f27-4bb4-984f-a16ed2628278, Fraction,1,1,1,1,1,1,1,1,1,1,0,0,0,1,0,0,0,0,1,1,1,1,1,1;

Schedule:Day:Hourly, 08f1c9ac-0310-4a40-ad3d-d4555b1c5f05, Fraction,1,1,1,1,1,1,0,0,0,1,0,1,1,1,1,1,1,1,1,0,1,1,1,1;

Schedule:Day:Hourly, e3ee9ee9-e617-4dde-883e-eeee9b351c1c, Fraction,0,1,1,1,0,1,1,1,1,1,0,0,1,0,0,0,0,1,1,1,1,1,1,1;

Schedule:Day:Hourly, 540576fc-90d0-4581-9a79-86f8c30c2684, Fraction,1,1,1,1,1,1,1,1,1,0,0,0,1,1,0,0,0,0,1,1,1,1,1,1;

Schedule:Day:Hourly, 67e945bf-9fb8-4855-a260-ffce3530f310, Fraction,1,1,1,1,1,1,1,1,1,0,0,0,1,1,0,0,0,1,1,1,1,1,1,1;

Schedule:Day:Hourly, 4fcdabdc-ccfd-4b2a-a043-e949d0ba5364, Fraction,1,1,1,1,0,1,1,1,1,1,0,0,0,0,0,0,0,0,1,1,1,1,0,1;

Schedule:Day:Hourly, 8fa364ed-c68c-469a-8511-61080ffe9db9, Fraction,1,0,0,0,0,0,0,1,1,1,0,0,0,1,1,1,1,1,0,0,0,0,0,0;

Schedule:Day:Hourly, a2931f4f-3854-4a85-97e5-79317f6a63c6, Fraction,0,0,0,0,0,0,1,1,1,1,0,0,0,1,0,0,0,0,1,1,1,1,1,1;

Schedule:Day:Hourly, ccc2258c-00a8-48f0-8890-b4debab9acf6, Fraction,1,0,0,0,0,0,0,0,1,1,1,1,1,1,0,0,1,1,1,1,1,1,1,1;

Schedule:Day:Hourly, 7f098360-c504-4f3e-9a81-bed948809a9d, Fraction,0,1,0,0,0,0,0,0,1,1,0,0,0,0,0,0,0,0,0,0,0,0,0,0;

Schedule:Day:Hourly, b3cdc2c3-ac1a-4c8d-87ba-f02d244a4d4c, Fraction,0,0,0,0,0,0,0,0,0,0,1,1,0,1,1,1,1,1,1,1,1,1,1,0;

Schedule:Day:Hourly, a1458dca-384d-42ac-8f2d-b5dce03e2cc4, Fraction,0,0,0,0,0,0,0,0,1,1,1,1,1,1,0,0,1,1,1,1,0,1,1,0;

Schedule:Day:Hourly, 692e2b9e-37f8-491f-859b-6e95e177d669, Fraction,0,0,0,0,0,0,0,0,1,1,1,1,1,1,0,0,1,1,1,1,1,1,1,1;

Schedule:Day:Hourly, c3a847de-318b-4e50-933f-cba877c46dc5, Fraction,1,0,1,0,0,0,0,0,1,1,1,0,0,0,1,1,1,1,1,1,1,1,1,1;

Schedule:Day:Hourly, 0787d4f0-03c2-476e-95d8-e98ed7f11f4e, Fraction,1,0,0,0,0,0,0,0,0,1,1,0,0,0,0,0,0,1,1,1,1,1,1,1;

Schedule:Day:Hourly, c072c81d-66f9-4cb2-817b-b70decad6450, Fraction,1,1,1,0,0,0,0,0,1,1,1,0,0,0,0,0,0,0,0,1,1,1,1,1;

Schedule:Day:Hourly, f9a6a370-91c3-45ad-83b0-530b17a80803, Fraction,1,1,1,0,0,0,0,0,1,1,0,0,0,1,0,0,0,1,0,0,0,0,0,0;

Schedule:Day:Hourly, aa28c969-07c4-48d3-b3c1-d907855ef2f1, Fraction,0,1,0,0,0,0,0,0,1,1,1,1,0,1,0,1,1,1,1,1,1,1,1,1;

Schedule:Day:Hourly, 38b85b12-ce32-40ba-8da2-f44b95ca2d21, Fraction,1,1,1,1,1,1,1,1,1,1,1,1,1,0,0,0,1,1,1,1,1,1,1,1;

Schedule:Day:Hourly, 6d824af6-b492-49e7-8b9c-64c8ebc3fe4d, Fraction,1,1,1,1,0,1,1,1,1,1,1,0,0,0,0,0,0,1,1,1,1,1,1,1;

Schedule:Day:Hourly, a21c18ef-e109-4922-b7a1-520cf68d9efe, Fraction,1,1,1,1,0,1,1,1,1,0,0,1,1,0,0,0,0,0,0,0,0,0,0,0;

Schedule:Day:Hourly, 265e953f-ccaf-4800-b35c-04579db085f1, Fraction,0,0,0,0,0,0,0,0,0,1,1,0,1,0,0,0,0,0,0,1,1,1,1,0;

Schedule:Day:Hourly, edd7a84e-eda9-484e-8d83-c278fc9f015e, Fraction,0,0,0,0,0,0,0,0,1,1,1,1,1,1,0,0,0,1,1,1,1,1,1,1;

Schedule:Day:Hourly, ac85824e-2cd9-411c-8bdb-c38b36c1d9f3, Fraction,1,1,0,1,1,1,1,0,1,1,1,1,1,0,0,0,0,1,1,1,1,1,0,1;

Schedule:Day:Hourly, 08cdb37d-ae56-4608-85b5-a8be4715f87b, Fraction,1,1,0,0,0,0,0,0,1,1,1,0,0,0,0,0,0,0,1,1,1,1,1,1;

Schedule:Day:Hourly, c480b875-3cca-4763-b539-ab3a225a9996, Fraction,1,1,0,0,0,0,0,0,1,1,0,0,0,0,0,0,0,0,0,1,1,1,1,1;

Schedule:Day:Hourly, 8a7f159c-9ff6-4092-bb58-e3acc2b85c6e, Fraction,1,1,0,0,0,0,0,0,1,0,0,0,0,0,0,0,0,0,1,1,1,1,1,1;

Schedule:Day:Hourly, d4177abb-49e4-4132-bff6-2ed436de6d17, Fraction,1,1,0,0,0,0,0,0,1,1,0,0,0,0,0,0,0,0,1,1,1,1,1,1;

Schedule:Day:Hourly, b43acea3-779c-47de-9cf5-d899ded07b68, Fraction,1,1,0,0,0,0,0,0,1,0,1,0,0,0,0,0,0,0,1,1,1,1,1,1;

Schedule:Day:Hourly, 976c476b-99fb-476c-8a80-1675287f297c, Fraction,1,1,1,1,1,1,1,1,1,1,1,0,0,0,0,0,0,0,1,1,1,1,1,1;

Schedule:Day:Hourly, 81c89fb5-c389-4096-b43a-58c98456619e, Fraction,1,1,1,1,1,1,1,1,1,0,0,0,0,0,0,0,0,1,1,1,1,1,1,1;

Schedule:Day:Hourly, 9d498a62-4221-4987-b234-ef22b033a8e2, Fraction,1,0,0,0,0,0,0,0,0,0,0,0,1,1,1,0,0,1,1,1,1,1,1,1;

Schedule:Day:Hourly, 098761db-fdb3-47d0-b1ac-ec07da6bd236, Fraction,1,0,1,0,0,0,0,0,0,1,1,1,0,0,0,0,0,1,1,1,1,1,1,0;

Schedule:Day:Hourly, 325f197f-bd12-4d93-b18c-a0d02835a7ae, Fraction,1,1,1,0,0,0,1,0,1,1,1,0,1,1,1,1,1,1,1,1,1,1,1,1;

Schedule:Day:Hourly, 5e96859e-2e41-4341-a095-63dd68902827, Fraction,0,0,0,0,0,0,0,0,1,1,1,0,0,1,1,1,1,1,1,1,1,1,1,1;

Schedule:Day:Hourly, ed7a5eb6-4e41-4abb-b188-0041f4c39cfc, Fraction,1,1,1,1,1,1,0,0,1,1,1,1,0,0,0,1,1,1,1,1,1,1,1,1;

Schedule:Day:Hourly, 7e5484a0-3be2-465b-b4d9-ebe13fa1c30f, Fraction,1,1,0,0,0,0,0,0,1,1,1,1,0,0,0,0,1,1,1,1,1,1,1,1;

Schedule:Day:Hourly, 4bcbde12-6427-4248-a1f5-bef20cc29fa4, Fraction,1,1,1,0,0,0,1,1,1,1,1,0,0,0,0,0,0,0,1,1,1,1,1,1;

Schedule:Day:Hourly, 8fd045c8-19bc-4fb3-be01-19aa50f06da6, Fraction,1,1,1,0,0,0,1,1,1,1,0,0,0,0,0,0,0,0,0,1,1,1,1,1;

Schedule:Day:Hourly, dce8617d-4674-40cb-80fc-bdd84b30efb2, Fraction,1,1,1,1,1,0,0,1,1,1,1,1,1,1,1,1,1,1,1,1,1,1,1,1;

Schedule:Day:Hourly, 3a2f6fc4-1d8f-4ff0-bd14-166b6dc2a9b9, Fraction,1,1,1,1,1,1,1,1,1,1,1,1,0,1,0,0,0,0,1,1,1,1,1,1;

Schedule:Day:Hourly, 95ed3a54-aa3f-43d6-8d76-e7e7197769d4, Fraction,1,1,1,1,1,0,0,0,1,1,1,0,0,0,0,0,1,1,1,1,1,1,1,1;

Schedule:Day:Hourly, 50cc714d-4f9f-40d8-ba50-ad3aebe2ebf5, Fraction,1,1,1,1,1,1,1,1,1,0,1,0,0,0,1,0,1,1,1,1,1,1,1,1;

Schedule:Day:Hourly, d862ddda-6804-4b2d-9cb2-e5d2cc448f89, Fraction,1,1,1,1,0,1,0,1,1,1,0,0,0,1,0,0,0,1,1,1,0,0,0,0;

Schedule:Day:Hourly, 31633279-9979-4c54-9c19-96edb8dc42bb, Fraction,0,0,1,1,0,0,0,0,1,1,1,1,1,1,1,1,1,1,1,1,1,1,1,1;

Schedule:Day:Hourly, fac3c325-2c34-496f-b3ad-1362ead0e820, Fraction,1,1,1,1,1,0,1,0,1,1,1,0,0,0,0,0,1,1,1,0,0,0,0,0;

Schedule:Day:Hourly, 84375bef-974d-4de8-9e57-46810bf473be, Fraction,0,0,0,1,1,0,0,0,1,1,1,1,1,1,1,1,1,1,1,1,1,1,1,1;

Schedule:Day:Hourly, f513b059-772a-4676-bd61-e5f81e2e1659, Fraction,1,1,1,1,0,1,0,0,0,1,1,1,0,1,1,1,1,1,1,1,1,1,1,1;

Schedule:Day:Hourly, 9736293a-0261-49d6-9e11-eabbdd3df04e, Fraction,1,1,1,0,1,1,1,1,1,1,1,0,0,1,0,0,1,0,1,1,1,1,1,1;

Schedule:Day:Hourly, b472dbd5-d94f-4424-8488-8831184dbaf0, Fraction,1,1,1,1,1,1,1,1,1,1,1,0,0,1,1,1,1,1,1,1,1,1,1,0;

Schedule:Day:Hourly, 33ae2a89-c14e-4efc-ae8a-7d59bbc42b96, Fraction,0,1,0,0,0,0,0,0,1,1,1,0,0,0,0,0,1,1,1,1,1,1,1,1;

Schedule:Day:Hourly, d180aac4-559e-488c-95de-4584b235e04b, Fraction,1,0,0,0,0,0,0,0,1,1,0,1,1,1,0,1,1,1,1,1,0,0,0,0;

Schedule:Day:Hourly, 51203287-4670-43aa-8a95-431797dadcd0, Fraction,0,0,0,1,0,1,1,1,1,1,1,1,0,0,0,0,1,0,1,1,1,1,1,1;

Schedule:Day:Hourly, 5807cd50-6046-48cb-aa02-0d090f47eb53, Fraction,1,1,1,1,1,1,0,0,1,1,1,0,0,1,1,1,1,1,1,1,1,1,1,1;

Schedule:Day:Hourly, c707efdc-4d85-4d2d-88d8-9dd1903177d0, Fraction,1,0,0,0,0,0,1,0,0,0,0,1,1,1,1,1,1,1,1,1,1,1,1,1;

Schedule:Day:Hourly, 4817171f-b67e-4810-93d4-982b00e31f43, Fraction,1,1,1,0,1,0,0,1,1,1,1,0,1,0,0,0,0,0,0,1,1,1,1,1;

Schedule:Day:Hourly, 535da9f3-d558-453d-8658-dfbc035df5f2, Fraction,1,1,1,0,0,0,1,1,1,1,1,1,0,0,0,0,1,1,1,1,1,1,1,1;

Schedule:Day:Hourly, 7e07fbc3-17a5-449a-9051-e2731c53b6b8, Fraction,1,0,0,0,0,1,0,0,1,1,1,0,0,0,0,0,0,0,0,1,1,1,1,1;

Schedule:Day:Hourly, ea085aae-cfb9-458a-b44e-2543d749e4b7, Fraction,1,1,0,0,0,1,1,0,1,1,0,0,0,0,0,0,0,0,0,0,1,1,1,1;

Schedule:Day:Hourly, 65822a8d-3b8b-4dd5-a3a6-fed7917eceb3, Fraction,1,1,1,1,1,1,1,0,1,1,0,0,0,0,0,0,1,0,0,0,0,0,1,1;

Schedule:Day:Hourly, 88d6ce40-4e25-4b43-a255-244c5e1bcf2b, Fraction,1,1,1,1,1,1,1,1,1,0,1,0,0,0,1,1,1,1,1,1,1,1,0,0;

Schedule:Day:Hourly, 994e1539-5b68-4bda-8874-32c8db541fa1, Fraction,0,0,0,0,0,0,0,0,0,1,0,1,1,0,1,1,1,1,1,0,1,1,1,0;

Schedule:Day:Hourly, 863a519d-f4e1-4fae-8cf1-aed8b35a6580, Fraction,0,0,0,0,0,0,0,0,1,1,1,0,0,0,1,1,0,0,1,1,1,1,1,0;

Schedule:Day:Hourly, b28a8506-db65-4194-922f-e0abde43d876, Fraction,1,1,1,1,1,1,1,1,1,1,0,1,0,0,0,1,1,1,1,1,1,1,1,1;

Schedule:Day:Hourly, 7ef86b5c-9b7f-4a9e-9991-87fd2a5f750b, Fraction,1,0,0,0,0,0,0,0,0,1,0,0,0,0,0,1,1,1,1,0,1,0,0,0;

Schedule:Day:Hourly, 1c331e92-866b-474d-9399-3259cd9723d4, Fraction,1,1,1,1,0,0,0,0,0,0,0,1,1,1,1,1,1,1,0,1,1,1,1,1;

Schedule:Day:Hourly, bc9f1d86-a230-4e9d-a676-339708063e41, Fraction,1,0,1,1,0,1,1,0,1,1,0,0,0,1,1,0,1,1,1,1,1,1,1,1;

Schedule:Day:Hourly, 06b07f90-d514-4df7-a7e0-fe58a0e27f90, Fraction,1,1,1,1,0,0,0,0,1,1,0,0,1,1,1,1,1,1,1,1,1,1,1,1;

Schedule:Day:Hourly, 7e4fde1b-e04b-4bef-8593-bec6bb85eaed, Fraction,1,1,1,1,1,0,1,1,1,0,1,0,0,0,0,0,1,1,1,1,1,1,1,0;

Schedule:Day:Hourly, 2d8ef99a-443f-4ca4-973f-15f3a2ba7165, Fraction,0,0,0,0,0,0,0,0,1,0,0,0,0,0,0,0,1,1,1,1,1,1,1,1;

Schedule:Day:Hourly, f4da608f-beb6-4ca2-b88c-dee4ac39c057, Fraction,1,1,1,1,1,1,1,1,1,0,0,0,0,0,0,1,1,1,1,1,1,1,1,1;

Schedule:Day:Hourly, 1e722646-97a1-498e-ac17-13e3a5ff9807, Fraction,1,0,1,1,0,0,0,0,1,0,0,0,0,0,0,0,0,0,1,1,1,1,1,1;

Schedule:Day:Hourly, ea6436d4-eb69-4e16-8753-9d64fc9b3721, Fraction,1,1,0,0,0,0,0,0,1,1,1,1,1,0,1,0,0,1,1,1,1,1,1,1;

Schedule:Day:Hourly, 48d67f2f-40b9-47df-92ab-33fafd89c037, Fraction,1,1,0,0,0,0,0,0,0,0,1,1,1,1,1,1,1,1,1,1,0,1,1,1;

Schedule:Day:Hourly, e1014d88-cc3d-479b-b10b-f2a5b628ae3e, Fraction,0,0,0,0,0,1,1,1,1,1,1,0,0,0,0,0,0,1,1,1,1,1,1,1;

Schedule:Day:Hourly, e0d26570-108e-4116-8d2e-ae2befc56af1, Fraction,1,0,0,0,0,0,0,1,1,1,1,1,1,1,1,1,0,0,0,0,0,0,0,0;

Schedule:Day:Hourly, 60e6770e-616d-49b7-94fb-9b610c53e99e, Fraction,1,0,1,1,0,1,1,1,1,1,1,1,0,1,1,1,1,1,1,1,1,1,1,1;

Schedule:Day:Hourly, 3906fb5c-dc49-49f7-a24d-36782f420233, Fraction,1,0,0,0,0,0,0,0,0,0,1,1,1,1,1,0,0,1,1,1,1,1,1,1;

Schedule:Day:Hourly, 14096159-9911-4de0-b077-0c3137be9edc, Fraction,0,0,0,1,0,0,0,0,1,1,0,0,0,0,0,0,0,0,1,1,1,1,1,1;

Schedule:Day:Hourly, 82ffc8e3-01a0-48c6-b120-f66219b7995a, Fraction,1,0,1,1,1,1,1,1,1,1,0,1,1,1,0,0,0,0,0,1,1,1,1,0;

Schedule:Day:Hourly, a23d93c2-ea68-46e7-8c31-5167e09370df, Fraction,0,0,0,0,0,1,0,0,0,1,1,1,1,0,0,1,1,1,1,1,1,1,1,0;

Schedule:Day:Hourly, 11fbe6fe-4449-45c1-9418-f9f9a3465f88, Fraction,0,0,0,0,0,0,1,1,1,1,1,0,0,0,0,0,0,1,1,1,1,1,1,1;

Schedule:Day:Hourly, fe602572-02a3-492b-a538-fbcf88eb913c, Fraction,1,0,0,0,0,0,0,1,1,1,1,0,0,0,0,1,1,1,1,1,1,1,1,1;

Schedule:Day:Hourly, f247f30a-8e24-4187-8a2d-b55cb85ae65c, Fraction,1,1,0,0,0,0,0,1,1,1,0,0,0,0,1,1,1,1,1,1,1,1,1,1;

Schedule:Day:Hourly, cae73169-9381-4977-9fee-bedc7f97b86e, Fraction,0,0,0,0,0,0,0,1,1,0,0,0,1,1,1,1,1,1,1,1,1,1,1,1;

Schedule:Day:Hourly, f2cb7afe-e64f-4c4c-8dc4-4ccd6db61ed8, Fraction,0,0,0,0,0,0,0,0,1,0,0,1,1,1,0,0,1,1,1,1,1,1,1,1;

Schedule:Day:Hourly, 6bdc70a4-f05f-40f0-9e5a-0edc42fc2623, Fraction,1,1,1,0,0,0,1,1,1,0,0,0,0,0,0,0,0,0,1,1,1,1,1,1;

Schedule:Day:Hourly, c09d0b16-12bf-449a-9067-64481914c33f, Fraction,1,1,1,1,1,1,1,0,0,0,0,1,1,1,1,1,1,1,1,1,1,1,1,0;

Schedule:Day:Hourly, 71f2496a-1fc6-4c23-aaeb-16698b399a29, Fraction,0,0,0,0,0,0,0,0,1,1,1,0,0,0,0,1,1,1,0,0,0,0,0,0;

Schedule:Day:Hourly, 24731d7e-e89c-47d8-9c45-f676caf1be62, Fraction,0,0,0,0,0,0,0,0,0,0,0,0,0,0,0,1,1,1,1,0,0,0,1,0;

Schedule:Day:Hourly, 3f0f5dec-51e2-4a6a-a587-035f74f66103, Fraction,0,0,0,0,0,0,0,0,1,1,0,0,1,0,1,1,1,1,1,1,1,1,1,0;

Schedule:Day:Hourly, a37a7125-2fc2-4744-b659-a7067276d999, Fraction,0,0,0,0,0,0,0,1,1,1,0,1,1,1,1,1,1,1,1,0,0,0,0,0;

Schedule:Day:Hourly, 46174adf-a1de-4017-8d04-69a7af78ad67, Fraction,0,0,0,0,0,1,1,1,1,1,0,0,0,0,0,0,0,1,1,1,1,1,1,1;

Schedule:Day:Hourly, f8b8e7c2-940a-4741-9228-861c6a699e86, Fraction,0,0,0,0,0,0,0,0,0,0,1,1,1,1,1,1,0,1,1,1,1,1,1,1;

Schedule:Day:Hourly, ead25a77-6f35-42e9-b504-67c48060d036, Fraction,0,0,0,0,0,0,0,0,0,0,0,0,1,1,1,1,1,1,1,1,1,0,0,0;

Schedule:Day:Hourly, ea251e44-7b94-46f5-8cd0-095031f60540, Fraction,0,0,0,0,0,0,0,1,1,1,0,0,0,0,0,0,0,1,1,1,1,0,0,0;

Schedule:Day:Hourly, 0bc55a47-c553-459f-8520-3a73dca5fcc9, Fraction,0,0,0,0,0,0,0,0,1,1,0,0,0,0,1,0,0,0,0,0,0,0,0,0;

Schedule:Day:Hourly, 3a97f197-0d03-4f04-837c-0c25be32bdc1, Fraction,0,0,0,0,0,0,0,0,0,1,1,1,1,0,1,1,1,1,1,1,1,1,1,1;

Schedule:Day:Hourly, 4d912ce7-ee7d-44ca-aa83-37e2997c6b6a, Fraction,0,0,0,0,0,0,0,0,1,0,0,0,0,0,0,0,0,1,0,0,0,0,0,0;

Schedule:Day:Hourly, f50f2ac2-404e-4f76-be53-a4ba3e5039c8, Fraction,0,0,0,0,0,0,0,0,1,1,0,0,0,0,0,0,1,1,1,1,1,1,0,0;

Schedule:Day:Hourly, 643d1290-fc6c-4738-a795-339bccd81e6b, Fraction,0,0,0,0,0,0,0,1,1,1,0,0,0,1,1,1,1,0,0,0,0,0,0,0;

Schedule:Day:Hourly, 7e1d4184-c45d-475a-95bf-eec5a14f8afe, Fraction,0,0,0,0,0,0,0,0,1,1,0,0,0,0,0,0,0,1,1,1,1,1,1,0;

Schedule:Day:Hourly, a1d0e1b4-9bd5-4e52-85d6-e0e3e7c2d9eb, Fraction,0,0,0,0,1,0,0,1,1,1,1,0,0,0,0,0,1,1,1,1,1,1,1,1;

Schedule:Day:Hourly, 0dfbfaab-d101-4d30-80ba-a7b257c95024, Fraction,1,1,1,1,1,0,0,0,1,1,1,1,1,0,1,1,1,1,1,1,1,1,1,1;

Schedule:Day:Hourly, 7a37472b-882a-4521-8544-b9820cea469c, Fraction,0,0,0,0,0,0,0,0,1,1,0,0,0,0,1,1,1,1,1,1,1,1,1,1;

Schedule:Day:Hourly, b8e4c8a7-3b38-4b10-9bfc-0df7f088e525, Fraction,1,1,1,1,1,1,1,0,1,1,1,1,1,0,1,1,1,1,1,1,1,1,0,0;

Schedule:Day:Hourly, 76231fb9-d8a5-4b07-b1c5-e61b15ab97da, Fraction,0,0,0,0,0,0,0,0,1,1,1,0,1,1,1,1,1,1,1,1,1,0,0,0;

Schedule:Day:Hourly, 5788cad6-316b-4893-b240-f73e67e3c4fa, Fraction,0,0,0,0,0,0,0,0,1,1,1,1,0,0,0,1,1,1,1,1,1,1,0,0;

Schedule:Day:Hourly, 9911065b-2b91-47c8-9dc7-b6e3e7039a38, Fraction,0,0,0,0,0,0,0,0,0,1,1,1,0,0,1,1,1,1,1,0,0,0,0,0;

Schedule:Day:Hourly, db863845-76dd-4278-85e7-534e2b42b735, Fraction,0,0,0,0,0,0,0,0,1,0,1,1,0,0,0,0,0,0,0,0,0,0,0,0;

Schedule:Day:Hourly, 990788d9-3630-4f5c-80df-4fc7187ed9f9, Fraction,0,0,0,0,0,0,0,0,1,1,0,1,1,1,1,1,1,1,0,0,0,0,0,0;

Schedule:Day:Hourly, 4362fb1d-b154-47fa-82a0-8699a8e1d197, Fraction,0,0,0,0,0,0,0,0,0,1,1,1,1,0,1,1,1,1,0,0,0,0,0,0;

Schedule:Day:Hourly, 812cf195-ed0a-48a8-a507-ca208756aee2, Fraction,0,0,0,0,0,0,0,0,0,1,1,1,0,1,1,1,1,1,1,1,1,1,1,0;

Schedule:Day:Hourly, 3eabedc1-1715-409c-9a7c-abcde10b50f3, Fraction,0,0,0,0,0,0,0,0,0,1,1,1,0,0,0,0,1,0,0,0,0,0,0,0;

Schedule:Day:Hourly, c100b73b-2f90-4a8a-8709-596de4cf8f78, Fraction,0,0,0,0,0,0,0,0,1,1,0,0,1,1,1,1,0,0,0,0,0,0,0,0;

Schedule:Day:Hourly, f4e171bb-5ac4-4e8f-87a7-608f1a36c9e7, Fraction,0,0,0,0,0,0,0,0,1,1,1,1,0,0,0,0,0,0,0,0,0,0,0,0;

Schedule:Day:Hourly, 74f0ccf9-9611-438d-ad20-eb344138fd0b, Fraction,0,0,0,0,0,0,0,0,1,1,1,1,1,1,1,0,0,0,0,0,0,0,0,0;

Schedule:Day:Hourly, 2d4c538f-afc6-41fb-b630-62724eff35c8, Fraction,0,0,0,0,0,0,0,0,0,0,0,0,0,0,0,1,1,1,0,0,0,0,0,0;

Schedule:Day:Hourly, 0a52c0f2-28d0-4f9b-a360-3fb49f230407, Fraction,0,0,0,0,0,0,0,0,1,0,0,0,0,0,0,0,0,0,0,0,0,0,0,0;

Schedule:Day:Hourly, d914082f-4541-4f9f-b515-560769f1c74d, Fraction,0,0,0,0,0,0,0,0,0,1,1,1,1,1,1,1,0,0,1,1,1,1,0,0;

Schedule:Day:Hourly, 5ed05bee-3597-4311-a2dc-37570760bcdf, Fraction,0,0,0,0,0,0,0,1,1,1,0,0,0,0,0,0,0,1,1,1,1,1,1,1;

Schedule:Day:Hourly, c2f1bc58-b1bf-4e7f-80ad-9e7a0b356a0e, Fraction,1,0,0,0,0,0,0,0,1,1,0,1,0,0,0,1,1,1,1,1,1,1,1,0;

Schedule:Day:Hourly, a292a8d8-a87a-47e8-9861-f384808c49f9, Fraction,0,0,0,0,0,0,0,0,1,1,1,0,0,0,1,1,1,0,0,0,0,0,0,0;

Schedule:Day:Hourly, 4cfc04fe-c15a-495c-88c6-e71002f19f15, Fraction,0,0,0,0,0,0,0,0,1,1,0,0,0,0,0,0,0,0,1,1,1,1,0,0;

Schedule:Day:Hourly, 652c2e8d-a48d-48ac-948a-82b5704a174c, Fraction,0,0,0,0,0,0,0,0,1,1,0,1,1,1,0,0,0,0,0,0,0,0,0,0;

Schedule:Day:Hourly, 17cf9ca7-e841-4da8-a251-574465571315, Fraction,0,0,0,0,0,0,0,0,1,1,1,0,0,1,1,1,1,1,1,1,0,0,0,0;

Schedule:Day:Hourly, cafdb4ca-72ea-4d36-aa43-e15ad10d879f, Fraction,0,0,0,0,0,0,0,0,1,1,0,0,0,0,1,1,0,1,1,1,1,0,0,0;

Schedule:Day:Hourly, 5115d299-2a37-4d3d-b8ac-7ab23069cdea, Fraction,0,0,0,0,0,0,0,0,0,1,0,0,0,0,0,0,0,1,1,1,1,1,0,0;

Schedule:Day:Hourly, 4225e8e1-3342-4360-aa35-ab3032df7977, Fraction,0,0,0,0,0,0,0,0,1,1,0,0,0,1,0,0,1,1,0,0,0,0,0,0;

Schedule:Day:Hourly, 31482dbb-fc52-4daa-b2d6-c19400f8b7dd, Fraction,0,0,0,0,0,0,0,0,0,1,1,1,1,0,1,1,1,1,1,1,1,0,0,0;

Schedule:Day:Hourly, 10692596-0a86-4582-a6a6-5bfbf260f151, Fraction,0,0,0,0,0,0,0,0,1,1,1,0,0,0,0,1,1,1,1,1,1,1,1,1;

Schedule:Day:Hourly, 04d9453c-5623-4ae9-b2ae-58740eb2e8ce, Fraction,1,0,0,0,0,0,0,1,1,1,0,0,0,0,1,1,1,1,1,1,0,0,0,1;

Schedule:Day:Hourly, 1d2fc50b-0a49-4854-9b77-556b4d948948, Fraction,1,1,1,1,1,1,1,1,1,1,1,0,0,1,1,0,1,1,1,1,1,1,1,1;

Schedule:Day:Hourly, 98014b99-b524-483d-9357-3c9cac3ab07e, Fraction,1,1,1,1,1,1,1,1,1,1,1,0,0,0,0,1,1,1,1,1,1,1,1,1;

Schedule:Day:Hourly, f9c9c6e6-474d-4073-bf22-9087017849ae, Fraction,1,1,1,1,1,1,1,1,1,1,1,0,1,1,1,1,1,1,1,1,1,1,1,1;

Schedule:Day:Hourly, 61350f18-d33d-495c-8e7f-2d22e85fa7d2, Fraction,1,1,1,1,0,1,1,1,1,1,1,0,0,0,1,1,1,1,1,1,1,1,1,1;

Schedule:Day:Hourly, 01c03bce-018f-499f-923d-5bd3592d06c6, Fraction,1,1,1,1,0,1,1,1,1,1,1,0,0,0,1,0,0,0,1,1,0,0,0,0;

Schedule:Day:Hourly, 47683fe2-e1dc-43ba-9a07-2a4ed2b0bbca, Fraction,0,0,0,0,0,0,0,0,0,0,0,0,0,0,0,0,0,0,0,0,0,0,0,0;

Schedule:Day:Hourly, b50fbb0b-ccd2-423a-b054-cb9bc2250c1a, Fraction,0,0,0,1,0,0,0,0,1,0,0,0,0,0,0,0,0,0,0,0,0,0,0,0;

Schedule:Day:Hourly, 89ca65e2-645e-4b1f-9480-58017509b166, Fraction,0,0,0,0,0,0,0,0,0,1,1,1,0,0,1,1,0,0,0,0,0,0,0,0;

Schedule:Day:Hourly, 89050f26-12b3-4456-998e-03f85882c61e, Fraction,0,0,0,0,0,0,0,0,0,1,1,0,0,1,0,1,0,0,1,0,1,1,0,1;

Schedule:Day:Hourly, 60c365fb-d4b6-42be-b02b-5820b220b864, Fraction,1,0,0,0,0,0,0,0,0,0,0,0,0,1,1,1,1,1,1,1,0,0,0,0;

Schedule:Day:Hourly, e61fb98e-7ecf-4d1e-bf36-8f053ff9741b, Fraction,0,0,0,0,0,0,0,0,0,0,0,0,1,1,1,1,1,1,1,0,0,0,0,0;

Schedule:Day:Hourly, 5064d9e3-acee-452f-a840-dfea63cae2cc, Fraction,0,0,0,0,0,0,0,0,0,0,0,0,0,0,1,0,0,0,1,0,0,0,0,0;

Schedule:Day:Hourly, b97cb5a5-d5a9-4a0d-8908-14f7e0c609ae, Fraction,0,0,0,0,0,0,0,0,0,1,1,1,1,1,1,1,1,1,1,1,0,0,0,0;

Schedule:Day:Hourly, 41a14bc3-846a-40e0-ba57-7c66e5b3d7d2, Fraction,0,0,0,0,0,0,0,0,1,1,1,1,0,0,0,0,1,1,1,1,1,1,0,1;

Schedule:Day:Hourly, fb5b6c37-b237-4585-9eb5-cb5afb383a00, Fraction,0,0,0,0,0,0,0,0,0,0,1,0,0,0,0,1,1,1,1,1,0,0,0,1;

Schedule:Day:Hourly, 14307ef4-5877-4c5d-bdde-77e6f39d5d6b, Fraction,0,0,0,0,0,0,0,0,0,1,1,1,1,0,0,0,0,0,0,0,0,0,0,0;

Schedule:Day:Hourly, 06d632c5-547c-47d1-aacc-91daa1ccd574, Fraction,0,0,0,0,0,0,0,0,0,0,1,1,1,1,1,1,1,0,1,0,0,0,0,0;

Schedule:Day:Hourly, 20664317-2f59-48ea-8a4d-a57176698c39, Fraction,0,0,0,0,0,0,0,0,1,1,1,1,0,1,0,1,0,0,0,0,1,0,0,0;

Schedule:Day:Hourly, fedb8d73-1b08-44aa-92cd-ec5e18078bad, Fraction,0,0,0,0,0,0,0,0,1,1,1,1,0,1,1,1,1,1,1,1,1,0,0,0;

Schedule:Day:Hourly, 3d5d7321-644f-46c5-9f62-165a607bd149, Fraction,0,0,0,0,0,0,0,0,1,1,1,0,1,0,0,1,1,1,1,1,1,1,1,0;

Schedule:Day:Hourly, bdfd5a6f-2b87-49b7-b9ce-44798d6c6f84, Fraction,0,0,1,1,0,0,1,0,1,1,1,1,0,1,1,1,1,1,1,1,1,1,1,1;

Schedule:Day:Hourly, 6ebcf35c-1306-47d4-9ffe-709202d06e21, Fraction,1,1,0,1,1,1,0,1,1,1,1,1,1,0,0,1,1,1,1,1,1,1,1,1;

Schedule:Day:Hourly, 50196fd8-8e6f-4f6b-9330-155e470fcb70, Fraction,1,1,1,1,1,1,1,1,1,1,1,0,0,0,0,0,1,1,1,1,1,1,0,1;

Schedule:Day:Hourly, c78f1e1e-8076-4246-9f53-a86594e02594, Fraction,0,0,1,1,0,1,1,0,1,1,1,0,0,0,0,1,1,1,1,1,1,1,1,1;

Schedule:Day:Hourly, 1a51ea95-b00b-4007-baf4-81df2edde44e, Fraction,1,0,1,0,0,0,0,0,1,1,1,0,0,0,0,0,1,1,1,1,1,1,1,1;

Schedule:Day:Hourly, 8d1a59fb-d8d0-49f8-a34f-28770e77c295, Fraction,1,0,0,0,0,0,0,0,1,1,1,1,0,0,0,0,1,1,1,1,1,1,1,1;

Schedule:Day:Hourly, 349e1abd-b25f-4db6-b761-d670b08dca59, Fraction,1,1,1,0,0,1,1,0,1,1,1,0,0,0,0,0,1,1,1,1,1,1,1,1;

Schedule:Day:Hourly, 31dfce8c-c413-471a-8925-809b4268a0f0, Fraction,1,0,0,0,0,1,1,0,1,1,1,1,1,1,1,1,1,1,1,1,1,1,0,0;


Schedule:Year,GlobalCO2,
AnyNumber,
GlobalCO2_0,1,1,1,7, 
GlobalCO2_1,1,8,1,14, 
GlobalCO2_2,1,15,1,21, 
GlobalCO2_3,1,22,1,28, 
GlobalCO2_4,1,29,2,4, 
GlobalCO2_5,2,5,2,11, 
GlobalCO2_6,2,12,2,18, 
GlobalCO2_7,2,19,2,25, 
GlobalCO2_8,2,26,3,4, 
GlobalCO2_9,3,5,3,11, 
GlobalCO2_10,3,12,3,18, 
GlobalCO2_11,3,19,3,25, 
GlobalCO2_12,3,26,4,1, 
GlobalCO2_13,4,2,4,8, 
GlobalCO2_14,4,9,4,15, 
GlobalCO2_15,4,16,4,22, 
GlobalCO2_16,4,23,4,29, 
GlobalCO2_17,4,30,5,6, 
GlobalCO2_18,5,7,5,13, 
GlobalCO2_19,5,14,5,20, 
GlobalCO2_20,5,21,5,27, 
GlobalCO2_21,5,28,6,3, 
GlobalCO2_22,6,4,6,10, 
GlobalCO2_23,6,11,6,17, 
GlobalCO2_24,6,18,6,24, 
GlobalCO2_25,6,25,7,1, 
GlobalCO2_26,7,2,7,8, 
GlobalCO2_27,7,9,7,15, 
GlobalCO2_28,7,16,7,22, 
GlobalCO2_29,7,23,7,29, 
GlobalCO2_30,7,30,8,5, 
GlobalCO2_31,8,6,8,12, 
GlobalCO2_32,8,13,8,19, 
GlobalCO2_33,8,20,8,26, 
GlobalCO2_34,8,27,9,2, 
GlobalCO2_35,9,3,9,9, 
GlobalCO2_36,9,10,9,16, 
GlobalCO2_37,9,17,9,23, 
GlobalCO2_38,9,24,9,30, 
GlobalCO2_39,10,1,10,7, 
GlobalCO2_40,10,8,10,14, 
GlobalCO2_41,10,15,10,21, 
GlobalCO2_42,10,22,10,28, 
GlobalCO2_43,10,29,11,4, 
GlobalCO2_44,11,5,11,11, 
GlobalCO2_45,11,12,11,18, 
GlobalCO2_46,11,19,11,25, 
GlobalCO2_47,11,26,12,2, 
GlobalCO2_48,12,3,12,9, 
GlobalCO2_49,12,10,12,16, 
GlobalCO2_50,12,17,12,23, 
GlobalCO2_51,12,24,12,30, 
GlobalCO2_52,12,31,12,31;

Schedule:Week:Daily, GlobalCO2_0,
  196b2e71-9258-46d0-be31-5bda7f87ca2e, !- Sunday Schedule:Day Name
  f3677061-fdac-4913-93ff-e34d072d317e, !- Monday Schedule:Day Name
  f617283f-8238-4f25-ae48-114c84f307d3, !- Tuesday Schedule:Day Name
  1b26ed76-7adb-492a-8994-47e46e8858df, !- Wednesday Schedule:Day Name
  3706bbb5-d7bd-4cb6-aa97-1f96bd01438f, !- Thursday Schedule:Day Name
  f31aa372-c001-4652-b15f-bbe7b3fd9823, !- Friday Schedule:Day Name
  f8f43bea-28a7-48ca-8bf9-e6c5303cb52b, !- Saturday Schedule:Day Name
  196b2e71-9258-46d0-be31-5bda7f87ca2e, !- Holiday Schedule:Day Name
  196b2e71-9258-46d0-be31-5bda7f87ca2e, !- SummerDesignDay Schedule:Day Name
  196b2e71-9258-46d0-be31-5bda7f87ca2e, !- WinterDesignDay Schedule:Day Name
  196b2e71-9258-46d0-be31-5bda7f87ca2e, !- CustomDay1 Schedule:Day Name
  196b2e71-9258-46d0-be31-5bda7f87ca2e; !- CustomDay2 Schedule:Day Name

Schedule:Week:Daily, GlobalCO2_1,
  ac4db6bc-2621-401e-a9f9-49ca1eca0b02, !- Sunday Schedule:Day Name
  8fd1d5a6-5b78-4338-92b8-429a620c4522, !- Monday Schedule:Day Name
  2b02e38d-e18b-433b-9347-4a4cce9b2f2f, !- Tuesday Schedule:Day Name
  c8e9f13c-7835-4cba-b1ce-65d2b3ca4c6f, !- Wednesday Schedule:Day Name
  14022ea1-17dc-46d7-ba21-4ec7eeec48f5, !- Thursday Schedule:Day Name
  13f3dd89-e07a-4c66-9818-9469be367bb1, !- Friday Schedule:Day Name
  b5e87eab-3489-4969-a4ec-26ab253e955b, !- Saturday Schedule:Day Name
  ac4db6bc-2621-401e-a9f9-49ca1eca0b02, !- Holiday Schedule:Day Name
  ac4db6bc-2621-401e-a9f9-49ca1eca0b02, !- SummerDesignDay Schedule:Day Name
  ac4db6bc-2621-401e-a9f9-49ca1eca0b02, !- WinterDesignDay Schedule:Day Name
  ac4db6bc-2621-401e-a9f9-49ca1eca0b02, !- CustomDay1 Schedule:Day Name
  ac4db6bc-2621-401e-a9f9-49ca1eca0b02; !- CustomDay2 Schedule:Day Name

Schedule:Week:Daily, GlobalCO2_2,
  0ab69f45-e765-49e6-96bf-0fc5bae1b255, !- Sunday Schedule:Day Name
  3aeb468b-17f1-4409-b164-d7643a8c78e2, !- Monday Schedule:Day Name
  5494dde4-7104-4119-b9c7-12cc2c51627a, !- Tuesday Schedule:Day Name
  a2671ea0-b5a1-411e-98db-b25c9b543ab2, !- Wednesday Schedule:Day Name
  2c389906-4b1d-4401-b277-9e2bdf51dae1, !- Thursday Schedule:Day Name
  391747eb-4002-4471-9a06-ee7a4e5ab01b, !- Friday Schedule:Day Name
  1cfffcac-3cf8-43a2-9749-5b1fd557b6b1, !- Saturday Schedule:Day Name
  0ab69f45-e765-49e6-96bf-0fc5bae1b255, !- Holiday Schedule:Day Name
  0ab69f45-e765-49e6-96bf-0fc5bae1b255, !- SummerDesignDay Schedule:Day Name
  0ab69f45-e765-49e6-96bf-0fc5bae1b255, !- WinterDesignDay Schedule:Day Name
  0ab69f45-e765-49e6-96bf-0fc5bae1b255, !- CustomDay1 Schedule:Day Name
  0ab69f45-e765-49e6-96bf-0fc5bae1b255; !- CustomDay2 Schedule:Day Name

Schedule:Week:Daily, GlobalCO2_3,
  7970eab2-8b96-480b-a59d-ead121638bed, !- Sunday Schedule:Day Name
  281c6359-460a-45c9-bdc3-45a77d7d78a2, !- Monday Schedule:Day Name
  071f961d-38c7-41ab-b9c9-2517951488c1, !- Tuesday Schedule:Day Name
  4eb16123-8e56-4e5a-a137-ca6d98d4cd93, !- Wednesday Schedule:Day Name
  9c8a692a-f653-4556-b607-511a5618678a, !- Thursday Schedule:Day Name
  8a996b26-00a3-44ea-a0aa-a8336ed9d1d2, !- Friday Schedule:Day Name
  6c6cf37c-ff2f-41a5-94e5-c6ec55a457b7, !- Saturday Schedule:Day Name
  7970eab2-8b96-480b-a59d-ead121638bed, !- Holiday Schedule:Day Name
  7970eab2-8b96-480b-a59d-ead121638bed, !- SummerDesignDay Schedule:Day Name
  7970eab2-8b96-480b-a59d-ead121638bed, !- WinterDesignDay Schedule:Day Name
  7970eab2-8b96-480b-a59d-ead121638bed, !- CustomDay1 Schedule:Day Name
  7970eab2-8b96-480b-a59d-ead121638bed; !- CustomDay2 Schedule:Day Name

Schedule:Week:Daily, GlobalCO2_4,
  da4e8571-1634-4d11-a68b-746996ed7c1b, !- Sunday Schedule:Day Name
  fcda81e2-1a3a-43f9-9f43-3b2a022d20d4, !- Monday Schedule:Day Name
  1539254c-1733-4e32-8bfc-333c9a7c7881, !- Tuesday Schedule:Day Name
  39c29aca-97dd-478f-9407-d24defd929c1, !- Wednesday Schedule:Day Name
  fb9c9420-0f11-48de-8ea7-aa246b1f3a37, !- Thursday Schedule:Day Name
  a26f3130-17c6-400a-ba41-7c7c1385f76f, !- Friday Schedule:Day Name
  becac4de-1628-4288-af69-062a12e4a88b, !- Saturday Schedule:Day Name
  da4e8571-1634-4d11-a68b-746996ed7c1b, !- Holiday Schedule:Day Name
  da4e8571-1634-4d11-a68b-746996ed7c1b, !- SummerDesignDay Schedule:Day Name
  da4e8571-1634-4d11-a68b-746996ed7c1b, !- WinterDesignDay Schedule:Day Name
  da4e8571-1634-4d11-a68b-746996ed7c1b, !- CustomDay1 Schedule:Day Name
  da4e8571-1634-4d11-a68b-746996ed7c1b; !- CustomDay2 Schedule:Day Name

Schedule:Week:Daily, GlobalCO2_5,
  6bd97ce5-933a-40ee-8126-909292b79718, !- Sunday Schedule:Day Name
  e4684f38-24ec-4293-ad32-c7c01842b815, !- Monday Schedule:Day Name
  551bf0e4-7bf6-4908-9b8e-5f6a50bef2eb, !- Tuesday Schedule:Day Name
  0c89c17e-c939-45f8-a95b-284ffb9e8954, !- Wednesday Schedule:Day Name
  1276fa4c-e141-4b9a-a7f7-08a212efe7dc, !- Thursday Schedule:Day Name
  6a20f689-1445-4428-b9e0-454a21e7768e, !- Friday Schedule:Day Name
  a05495c2-cfd9-4206-ab0b-76ea41716fc3, !- Saturday Schedule:Day Name
  6bd97ce5-933a-40ee-8126-909292b79718, !- Holiday Schedule:Day Name
  6bd97ce5-933a-40ee-8126-909292b79718, !- SummerDesignDay Schedule:Day Name
  6bd97ce5-933a-40ee-8126-909292b79718, !- WinterDesignDay Schedule:Day Name
  6bd97ce5-933a-40ee-8126-909292b79718, !- CustomDay1 Schedule:Day Name
  6bd97ce5-933a-40ee-8126-909292b79718; !- CustomDay2 Schedule:Day Name

Schedule:Week:Daily, GlobalCO2_6,
  006ed613-653d-4242-9f04-c5306ecb62ca, !- Sunday Schedule:Day Name
  4ef2a926-ce51-4db5-b1af-eeb8068fe2ec, !- Monday Schedule:Day Name
  8df9778f-5068-4d08-a1b0-73af5b32e3a7, !- Tuesday Schedule:Day Name
  31fb17f1-48dc-41ba-9ace-3c2b6dc15985, !- Wednesday Schedule:Day Name
  17e271a8-8566-48f0-a76b-18dd6ac44637, !- Thursday Schedule:Day Name
  cbd1015b-1a7d-482c-b9f1-0915b46cf7a0, !- Friday Schedule:Day Name
  cbd1015b-1a7d-482c-b9f1-0915b46cf7a0, !- Saturday Schedule:Day Name
  006ed613-653d-4242-9f04-c5306ecb62ca, !- Holiday Schedule:Day Name
  006ed613-653d-4242-9f04-c5306ecb62ca, !- SummerDesignDay Schedule:Day Name
  006ed613-653d-4242-9f04-c5306ecb62ca, !- WinterDesignDay Schedule:Day Name
  006ed613-653d-4242-9f04-c5306ecb62ca, !- CustomDay1 Schedule:Day Name
  006ed613-653d-4242-9f04-c5306ecb62ca; !- CustomDay2 Schedule:Day Name

Schedule:Week:Daily, GlobalCO2_7,
  a5f463a5-ae76-4400-a67e-ef582e196536, !- Sunday Schedule:Day Name
  5a5cea5e-ca42-4ef4-92bf-3cb462434c36, !- Monday Schedule:Day Name
  45b09caa-95a7-4e8b-a86e-de8da0bc37d2, !- Tuesday Schedule:Day Name
  207f6a57-2528-4157-acb6-139de67a32de, !- Wednesday Schedule:Day Name
  207f6a57-2528-4157-acb6-139de67a32de, !- Thursday Schedule:Day Name
  66f99768-2848-4f7e-af78-c5ba11c3e655, !- Friday Schedule:Day Name
  b197e35a-df6a-41bc-b08a-b112dad21638, !- Saturday Schedule:Day Name
  a5f463a5-ae76-4400-a67e-ef582e196536, !- Holiday Schedule:Day Name
  a5f463a5-ae76-4400-a67e-ef582e196536, !- SummerDesignDay Schedule:Day Name
  a5f463a5-ae76-4400-a67e-ef582e196536, !- WinterDesignDay Schedule:Day Name
  a5f463a5-ae76-4400-a67e-ef582e196536, !- CustomDay1 Schedule:Day Name
  a5f463a5-ae76-4400-a67e-ef582e196536; !- CustomDay2 Schedule:Day Name

Schedule:Week:Daily, GlobalCO2_8,
  b197e35a-df6a-41bc-b08a-b112dad21638, !- Sunday Schedule:Day Name
  804a3690-434f-4922-8735-df862697bc20, !- Monday Schedule:Day Name
  dc2f6ae5-70c1-4333-b02e-e1d623fa12e7, !- Tuesday Schedule:Day Name
  fc957f16-fbf6-4b00-b29d-58aaca014225, !- Wednesday Schedule:Day Name
  a12dbe7e-7765-4d7b-944b-eb9e513bd1ff, !- Thursday Schedule:Day Name
  1af318fc-aad7-43d6-841e-09599fdf6d07, !- Friday Schedule:Day Name
  20df2ad1-f5bf-431e-9084-ec46fc87960b, !- Saturday Schedule:Day Name
  b197e35a-df6a-41bc-b08a-b112dad21638, !- Holiday Schedule:Day Name
  b197e35a-df6a-41bc-b08a-b112dad21638, !- SummerDesignDay Schedule:Day Name
  b197e35a-df6a-41bc-b08a-b112dad21638, !- WinterDesignDay Schedule:Day Name
  b197e35a-df6a-41bc-b08a-b112dad21638, !- CustomDay1 Schedule:Day Name
  b197e35a-df6a-41bc-b08a-b112dad21638; !- CustomDay2 Schedule:Day Name

Schedule:Week:Daily, GlobalCO2_9,
  f55aaf13-564f-407a-a9a6-d2f5323c6209, !- Sunday Schedule:Day Name
  c8f658e6-fcd1-4b48-b4d8-2ad449e226da, !- Monday Schedule:Day Name
  acad6b0d-4952-4674-b444-e0f469b21e4e, !- Tuesday Schedule:Day Name
  d656898c-f903-44fa-99fc-dfd774fd5f15, !- Wednesday Schedule:Day Name
  50a9e032-4fa8-4f6a-9296-2bcf72e488ab, !- Thursday Schedule:Day Name
  72abaf3e-a743-415c-a490-dd023dd46a19, !- Friday Schedule:Day Name
  877023bc-35f8-4195-ab82-c991f9745de9, !- Saturday Schedule:Day Name
  f55aaf13-564f-407a-a9a6-d2f5323c6209, !- Holiday Schedule:Day Name
  f55aaf13-564f-407a-a9a6-d2f5323c6209, !- SummerDesignDay Schedule:Day Name
  f55aaf13-564f-407a-a9a6-d2f5323c6209, !- WinterDesignDay Schedule:Day Name
  f55aaf13-564f-407a-a9a6-d2f5323c6209, !- CustomDay1 Schedule:Day Name
  f55aaf13-564f-407a-a9a6-d2f5323c6209; !- CustomDay2 Schedule:Day Name

Schedule:Week:Daily, GlobalCO2_10,
  2d54760c-f5cd-4752-b251-22c89003cfe7, !- Sunday Schedule:Day Name
  a8006f25-90cd-45a9-bf86-1ab96edbd261, !- Monday Schedule:Day Name
  0918779e-4c86-47d1-8c1c-23ed5e10c81b, !- Tuesday Schedule:Day Name
  504d6878-4286-41a7-a066-19dd2aa0aa5f, !- Wednesday Schedule:Day Name
  e329d3dd-1c5b-43d5-906b-53e9526796b4, !- Thursday Schedule:Day Name
  58074bd2-c3b9-437d-98ca-8b5396f986b8, !- Friday Schedule:Day Name
  c441b806-3a88-4510-ae63-2e72053d4729, !- Saturday Schedule:Day Name
  2d54760c-f5cd-4752-b251-22c89003cfe7, !- Holiday Schedule:Day Name
  2d54760c-f5cd-4752-b251-22c89003cfe7, !- SummerDesignDay Schedule:Day Name
  2d54760c-f5cd-4752-b251-22c89003cfe7, !- WinterDesignDay Schedule:Day Name
  2d54760c-f5cd-4752-b251-22c89003cfe7, !- CustomDay1 Schedule:Day Name
  2d54760c-f5cd-4752-b251-22c89003cfe7; !- CustomDay2 Schedule:Day Name

Schedule:Week:Daily, GlobalCO2_11,
  cea973d8-bc8a-46b6-949c-f791a1101cac, !- Sunday Schedule:Day Name
  95f27950-5e74-40f1-a5f0-64c889425cd6, !- Monday Schedule:Day Name
  51621993-1a25-4967-a008-a0bafcc8ae62, !- Tuesday Schedule:Day Name
  d179828f-e172-4410-be85-d0fa6af135ed, !- Wednesday Schedule:Day Name
  c82d8849-1c6e-4e59-8068-212d110320e8, !- Thursday Schedule:Day Name
  f6a00614-a318-4296-8aae-c93190e99702, !- Friday Schedule:Day Name
  8cafc7a4-9245-4b00-a802-ca4b67ab16c1, !- Saturday Schedule:Day Name
  cea973d8-bc8a-46b6-949c-f791a1101cac, !- Holiday Schedule:Day Name
  cea973d8-bc8a-46b6-949c-f791a1101cac, !- SummerDesignDay Schedule:Day Name
  cea973d8-bc8a-46b6-949c-f791a1101cac, !- WinterDesignDay Schedule:Day Name
  cea973d8-bc8a-46b6-949c-f791a1101cac, !- CustomDay1 Schedule:Day Name
  cea973d8-bc8a-46b6-949c-f791a1101cac; !- CustomDay2 Schedule:Day Name

Schedule:Week:Daily, GlobalCO2_12,
  6386fd52-2d99-4206-8dec-069d3996574d, !- Sunday Schedule:Day Name
  10b9f2ff-64c0-4b49-9c84-44af6bb08c96, !- Monday Schedule:Day Name
  2fd5fa91-b98b-4eb1-b39f-72f6ce5f8dfb, !- Tuesday Schedule:Day Name
  42c10887-8269-428c-bf9c-07024f22f6c9, !- Wednesday Schedule:Day Name
  ec622474-19d6-4001-a71a-40deeb547452, !- Thursday Schedule:Day Name
  cffbe1c2-9dbc-47c1-99a6-774322a2443a, !- Friday Schedule:Day Name
  c3ddad38-3cde-4a15-8285-187a9754317a, !- Saturday Schedule:Day Name
  6386fd52-2d99-4206-8dec-069d3996574d, !- Holiday Schedule:Day Name
  6386fd52-2d99-4206-8dec-069d3996574d, !- SummerDesignDay Schedule:Day Name
  6386fd52-2d99-4206-8dec-069d3996574d, !- WinterDesignDay Schedule:Day Name
  6386fd52-2d99-4206-8dec-069d3996574d, !- CustomDay1 Schedule:Day Name
  6386fd52-2d99-4206-8dec-069d3996574d; !- CustomDay2 Schedule:Day Name

Schedule:Week:Daily, GlobalCO2_13,
  9630c57f-431c-4a5a-b5bb-87914f4200bd, !- Sunday Schedule:Day Name
  f25926f2-c81b-4f21-80c0-154462de0e5f, !- Monday Schedule:Day Name
  d406048f-7c54-4a49-be74-ba365bed3bfb, !- Tuesday Schedule:Day Name
  d7009437-693c-46ce-9e85-98be55edbf62, !- Wednesday Schedule:Day Name
  d5ad0d53-e8ca-475f-ad93-36b8056ac111, !- Thursday Schedule:Day Name
  9226a04f-18f0-4618-adbd-6a943e2c9b2a, !- Friday Schedule:Day Name
  8793b685-8c22-4b31-b35e-618595fcaaf8, !- Saturday Schedule:Day Name
  9630c57f-431c-4a5a-b5bb-87914f4200bd, !- Holiday Schedule:Day Name
  9630c57f-431c-4a5a-b5bb-87914f4200bd, !- SummerDesignDay Schedule:Day Name
  9630c57f-431c-4a5a-b5bb-87914f4200bd, !- WinterDesignDay Schedule:Day Name
  9630c57f-431c-4a5a-b5bb-87914f4200bd, !- CustomDay1 Schedule:Day Name
  9630c57f-431c-4a5a-b5bb-87914f4200bd; !- CustomDay2 Schedule:Day Name

Schedule:Week:Daily, GlobalCO2_14,
  a9eed6f1-3754-4ab2-b50f-b530355d49ad, !- Sunday Schedule:Day Name
  7a954f48-2267-47f1-8c29-7e5738e645ec, !- Monday Schedule:Day Name
  16073ab4-2527-4ce2-b577-bd430a41dd5f, !- Tuesday Schedule:Day Name
  987d6528-7d91-4189-9968-9b729de794ba, !- Wednesday Schedule:Day Name
  d5abbde8-112a-46fc-b177-0eba6cd521e6, !- Thursday Schedule:Day Name
  28c79e03-4cd8-469b-94e7-ef421c0aea0e, !- Friday Schedule:Day Name
  ff4f28be-d764-43bd-93a8-04831ebbcaf6, !- Saturday Schedule:Day Name
  a9eed6f1-3754-4ab2-b50f-b530355d49ad, !- Holiday Schedule:Day Name
  a9eed6f1-3754-4ab2-b50f-b530355d49ad, !- SummerDesignDay Schedule:Day Name
  a9eed6f1-3754-4ab2-b50f-b530355d49ad, !- WinterDesignDay Schedule:Day Name
  a9eed6f1-3754-4ab2-b50f-b530355d49ad, !- CustomDay1 Schedule:Day Name
  a9eed6f1-3754-4ab2-b50f-b530355d49ad; !- CustomDay2 Schedule:Day Name

Schedule:Week:Daily, GlobalCO2_15,
  d1365ad8-9bdb-4306-a8bd-cc7c2b21a4ff, !- Sunday Schedule:Day Name
  b462244e-5506-46ff-98db-73ad4df6bd45, !- Monday Schedule:Day Name
  5a5eaf5e-ee35-434e-a2bd-6f825b5f18fb, !- Tuesday Schedule:Day Name
  71a8dd8b-8d33-4865-82c7-47fd322c92a9, !- Wednesday Schedule:Day Name
  55f8b172-8012-4784-97a1-beaf4df96472, !- Thursday Schedule:Day Name
  aad1a63e-7788-480c-b53b-c252d8779cbc, !- Friday Schedule:Day Name
  ceb23d7a-974d-42d5-a06b-93b721a6c2aa, !- Saturday Schedule:Day Name
  d1365ad8-9bdb-4306-a8bd-cc7c2b21a4ff, !- Holiday Schedule:Day Name
  d1365ad8-9bdb-4306-a8bd-cc7c2b21a4ff, !- SummerDesignDay Schedule:Day Name
  d1365ad8-9bdb-4306-a8bd-cc7c2b21a4ff, !- WinterDesignDay Schedule:Day Name
  d1365ad8-9bdb-4306-a8bd-cc7c2b21a4ff, !- CustomDay1 Schedule:Day Name
  d1365ad8-9bdb-4306-a8bd-cc7c2b21a4ff; !- CustomDay2 Schedule:Day Name

Schedule:Week:Daily, GlobalCO2_16,
  4df0867f-ce7a-44e3-b06c-06c80115dee7, !- Sunday Schedule:Day Name
  e078a989-3348-4885-afa1-ecbdf6adae7a, !- Monday Schedule:Day Name
  b21e8ab9-1cbb-40bd-bd96-94383e269806, !- Tuesday Schedule:Day Name
  cdfe1d73-89a9-4fbd-8fa7-963820881530, !- Wednesday Schedule:Day Name
  f86057cf-4f49-4ded-831c-3312be2b7c0b, !- Thursday Schedule:Day Name
  acfc4b07-bce1-46c3-8e09-b9804e5a0f8f, !- Friday Schedule:Day Name
  b8c7aff1-f342-4f6b-9d3c-c0da92188d9d, !- Saturday Schedule:Day Name
  4df0867f-ce7a-44e3-b06c-06c80115dee7, !- Holiday Schedule:Day Name
  4df0867f-ce7a-44e3-b06c-06c80115dee7, !- SummerDesignDay Schedule:Day Name
  4df0867f-ce7a-44e3-b06c-06c80115dee7, !- WinterDesignDay Schedule:Day Name
  4df0867f-ce7a-44e3-b06c-06c80115dee7, !- CustomDay1 Schedule:Day Name
  4df0867f-ce7a-44e3-b06c-06c80115dee7; !- CustomDay2 Schedule:Day Name

Schedule:Week:Daily, GlobalCO2_17,
  d46253f0-acc3-4aa2-924e-948601d2a609, !- Sunday Schedule:Day Name
  fee14d0f-7fba-45ac-8a72-3ba036d11814, !- Monday Schedule:Day Name
  05835317-9e12-42e7-b277-f55b4172941c, !- Tuesday Schedule:Day Name
  739a1565-8d1b-4f2f-97ac-407c37b7f8a0, !- Wednesday Schedule:Day Name
  ec388024-944b-4ba3-848c-6617a2cc9ebe, !- Thursday Schedule:Day Name
  ec388024-944b-4ba3-848c-6617a2cc9ebe, !- Friday Schedule:Day Name
  ec388024-944b-4ba3-848c-6617a2cc9ebe, !- Saturday Schedule:Day Name
  d46253f0-acc3-4aa2-924e-948601d2a609, !- Holiday Schedule:Day Name
  d46253f0-acc3-4aa2-924e-948601d2a609, !- SummerDesignDay Schedule:Day Name
  d46253f0-acc3-4aa2-924e-948601d2a609, !- WinterDesignDay Schedule:Day Name
  d46253f0-acc3-4aa2-924e-948601d2a609, !- CustomDay1 Schedule:Day Name
  d46253f0-acc3-4aa2-924e-948601d2a609; !- CustomDay2 Schedule:Day Name

Schedule:Week:Daily, GlobalCO2_18,
  ec388024-944b-4ba3-848c-6617a2cc9ebe, !- Sunday Schedule:Day Name
  ec388024-944b-4ba3-848c-6617a2cc9ebe, !- Monday Schedule:Day Name
  b4d89bad-5a5d-4453-8c97-80399367ac0f, !- Tuesday Schedule:Day Name
  05835317-9e12-42e7-b277-f55b4172941c, !- Wednesday Schedule:Day Name
  05835317-9e12-42e7-b277-f55b4172941c, !- Thursday Schedule:Day Name
  95c668db-b5ea-495b-8453-5fb2f032f9b4, !- Friday Schedule:Day Name
  393273df-4662-4bf3-bdf4-fa255d3e47c8, !- Saturday Schedule:Day Name
  ec388024-944b-4ba3-848c-6617a2cc9ebe, !- Holiday Schedule:Day Name
  ec388024-944b-4ba3-848c-6617a2cc9ebe, !- SummerDesignDay Schedule:Day Name
  ec388024-944b-4ba3-848c-6617a2cc9ebe, !- WinterDesignDay Schedule:Day Name
  ec388024-944b-4ba3-848c-6617a2cc9ebe, !- CustomDay1 Schedule:Day Name
  ec388024-944b-4ba3-848c-6617a2cc9ebe; !- CustomDay2 Schedule:Day Name

Schedule:Week:Daily, GlobalCO2_19,
  acfc4b07-bce1-46c3-8e09-b9804e5a0f8f, !- Sunday Schedule:Day Name
  96bd9c6c-7ac5-423e-96df-2050e3eeecd3, !- Monday Schedule:Day Name
  a5d0f2a7-ae1b-430e-a8a9-5c0a4304fa98, !- Tuesday Schedule:Day Name
  540585d1-af83-4401-9ac8-8a1c62514559, !- Wednesday Schedule:Day Name
  715d3123-0b0e-42d5-a807-6f02a1207edc, !- Thursday Schedule:Day Name
  997a719a-d4cb-4152-9967-cb9f9022d5a6, !- Friday Schedule:Day Name
  1a11cf2c-5f2e-4ab2-b320-cef47a82ae3c, !- Saturday Schedule:Day Name
  acfc4b07-bce1-46c3-8e09-b9804e5a0f8f, !- Holiday Schedule:Day Name
  acfc4b07-bce1-46c3-8e09-b9804e5a0f8f, !- SummerDesignDay Schedule:Day Name
  acfc4b07-bce1-46c3-8e09-b9804e5a0f8f, !- WinterDesignDay Schedule:Day Name
  acfc4b07-bce1-46c3-8e09-b9804e5a0f8f, !- CustomDay1 Schedule:Day Name
  acfc4b07-bce1-46c3-8e09-b9804e5a0f8f; !- CustomDay2 Schedule:Day Name

Schedule:Week:Daily, GlobalCO2_20,
  1279752c-f967-4af0-82ad-535ab474a37c, !- Sunday Schedule:Day Name
  acce5c1f-cd96-4f51-9113-02720c99c3bc, !- Monday Schedule:Day Name
  a1098175-95e5-41fd-98f8-6ad1cafe1eee, !- Tuesday Schedule:Day Name
  f50dc65a-18ae-47ce-bbc4-9e30f87ad557, !- Wednesday Schedule:Day Name
  321564c2-d23e-451e-b47f-f2bd74d0aed5, !- Thursday Schedule:Day Name
  3afa4dc8-f7dc-44e9-85d5-d0bfa62fa96c, !- Friday Schedule:Day Name
  c6e90952-f98b-4be4-a45f-3a863b3aa707, !- Saturday Schedule:Day Name
  1279752c-f967-4af0-82ad-535ab474a37c, !- Holiday Schedule:Day Name
  1279752c-f967-4af0-82ad-535ab474a37c, !- SummerDesignDay Schedule:Day Name
  1279752c-f967-4af0-82ad-535ab474a37c, !- WinterDesignDay Schedule:Day Name
  1279752c-f967-4af0-82ad-535ab474a37c, !- CustomDay1 Schedule:Day Name
  1279752c-f967-4af0-82ad-535ab474a37c; !- CustomDay2 Schedule:Day Name

Schedule:Week:Daily, GlobalCO2_21,
  4aa8e288-43a5-4985-ad43-349ea22b9931, !- Sunday Schedule:Day Name
  980cae7c-19b4-41a5-a9fa-8dcc7e910c0e, !- Monday Schedule:Day Name
  8cd0f113-a00a-4016-aa35-829fa76efde8, !- Tuesday Schedule:Day Name
  cd7eda38-fc23-4d07-957c-92d580c30205, !- Wednesday Schedule:Day Name
  9e620f0b-101d-498f-86f9-aae6b922b85e, !- Thursday Schedule:Day Name
  58d640a5-63f0-4ef4-af7a-373e0723f7e3, !- Friday Schedule:Day Name
  34c297a5-65fb-40a4-abab-70268e44737b, !- Saturday Schedule:Day Name
  4aa8e288-43a5-4985-ad43-349ea22b9931, !- Holiday Schedule:Day Name
  4aa8e288-43a5-4985-ad43-349ea22b9931, !- SummerDesignDay Schedule:Day Name
  4aa8e288-43a5-4985-ad43-349ea22b9931, !- WinterDesignDay Schedule:Day Name
  4aa8e288-43a5-4985-ad43-349ea22b9931, !- CustomDay1 Schedule:Day Name
  4aa8e288-43a5-4985-ad43-349ea22b9931; !- CustomDay2 Schedule:Day Name

Schedule:Week:Daily, GlobalCO2_22,
  00823ed5-3d05-496e-b5ea-72d2bbe92149, !- Sunday Schedule:Day Name
  e7d32537-6bc2-4413-93be-f098c56a5739, !- Monday Schedule:Day Name
  6eb2e4ed-461a-468d-b33e-dc1323329075, !- Tuesday Schedule:Day Name
  792f11e6-7e31-4801-83f5-2d754bb582ff, !- Wednesday Schedule:Day Name
  3286419c-8525-428e-9a6d-cac28f7015b3, !- Thursday Schedule:Day Name
  b4092304-5da3-4c35-a59a-dfed03a1b128, !- Friday Schedule:Day Name
  94ee28b3-3660-4d1d-8281-b907c1fe2174, !- Saturday Schedule:Day Name
  00823ed5-3d05-496e-b5ea-72d2bbe92149, !- Holiday Schedule:Day Name
  00823ed5-3d05-496e-b5ea-72d2bbe92149, !- SummerDesignDay Schedule:Day Name
  00823ed5-3d05-496e-b5ea-72d2bbe92149, !- WinterDesignDay Schedule:Day Name
  00823ed5-3d05-496e-b5ea-72d2bbe92149, !- CustomDay1 Schedule:Day Name
  00823ed5-3d05-496e-b5ea-72d2bbe92149; !- CustomDay2 Schedule:Day Name

Schedule:Week:Daily, GlobalCO2_23,
  2f68c18f-bdd5-499e-a5fe-6566d7b3afef, !- Sunday Schedule:Day Name
  7c60547f-7a82-43a5-bcdf-e40de7d79ead, !- Monday Schedule:Day Name
  286b6988-5c77-4c0d-b68f-d03822daa7f5, !- Tuesday Schedule:Day Name
  5df934ca-6441-4fc4-ba2b-2c37c2283e00, !- Wednesday Schedule:Day Name
  df0205aa-b0eb-4c98-84eb-c973cabede4d, !- Thursday Schedule:Day Name
  f7462b36-9c3e-4c00-aea6-547797758472, !- Friday Schedule:Day Name
  b9966de8-b9f6-49a7-b9e4-192b65588efb, !- Saturday Schedule:Day Name
  2f68c18f-bdd5-499e-a5fe-6566d7b3afef, !- Holiday Schedule:Day Name
  2f68c18f-bdd5-499e-a5fe-6566d7b3afef, !- SummerDesignDay Schedule:Day Name
  2f68c18f-bdd5-499e-a5fe-6566d7b3afef, !- WinterDesignDay Schedule:Day Name
  2f68c18f-bdd5-499e-a5fe-6566d7b3afef, !- CustomDay1 Schedule:Day Name
  2f68c18f-bdd5-499e-a5fe-6566d7b3afef; !- CustomDay2 Schedule:Day Name

Schedule:Week:Daily, GlobalCO2_24,
  fccf14e6-94c4-4822-a4d6-7d004575564d, !- Sunday Schedule:Day Name
  619bebe7-5a79-488d-bc82-57b625c72c96, !- Monday Schedule:Day Name
  bd6e7bac-b994-4664-9d41-20e0e3a420ec, !- Tuesday Schedule:Day Name
  68781367-4fb5-455b-9945-2cf271a29935, !- Wednesday Schedule:Day Name
  2ab6ed2c-e780-4661-9fec-9ab255515eff, !- Thursday Schedule:Day Name
  929c5aed-f63b-43b3-b08c-55380f1817fc, !- Friday Schedule:Day Name
  09ee0ae7-9145-48b9-a706-8900dc6436c6, !- Saturday Schedule:Day Name
  fccf14e6-94c4-4822-a4d6-7d004575564d, !- Holiday Schedule:Day Name
  fccf14e6-94c4-4822-a4d6-7d004575564d, !- SummerDesignDay Schedule:Day Name
  fccf14e6-94c4-4822-a4d6-7d004575564d, !- WinterDesignDay Schedule:Day Name
  fccf14e6-94c4-4822-a4d6-7d004575564d, !- CustomDay1 Schedule:Day Name
  fccf14e6-94c4-4822-a4d6-7d004575564d; !- CustomDay2 Schedule:Day Name

Schedule:Week:Daily, GlobalCO2_25,
  06ea6adc-c714-413c-b2b3-6aaa743c52a3, !- Sunday Schedule:Day Name
  78f16d3f-4130-4261-a923-e69f9a6ff7fa, !- Monday Schedule:Day Name
  d6a892ec-8543-4a89-a7a8-41f2f278a804, !- Tuesday Schedule:Day Name
  301bb745-4b01-410a-ad88-ee2eebcde194, !- Wednesday Schedule:Day Name
  808b6f06-d2ee-41ef-a57d-caeee661e9fb, !- Thursday Schedule:Day Name
  cfc0af06-d9b0-4593-a529-e1f06d744db9, !- Friday Schedule:Day Name
  27259fa4-9fd5-448c-b993-0b8969d4753d, !- Saturday Schedule:Day Name
  06ea6adc-c714-413c-b2b3-6aaa743c52a3, !- Holiday Schedule:Day Name
  06ea6adc-c714-413c-b2b3-6aaa743c52a3, !- SummerDesignDay Schedule:Day Name
  06ea6adc-c714-413c-b2b3-6aaa743c52a3, !- WinterDesignDay Schedule:Day Name
  06ea6adc-c714-413c-b2b3-6aaa743c52a3, !- CustomDay1 Schedule:Day Name
  06ea6adc-c714-413c-b2b3-6aaa743c52a3; !- CustomDay2 Schedule:Day Name

Schedule:Week:Daily, GlobalCO2_26,
  d087321c-8b65-48fa-8513-546173ec3961, !- Sunday Schedule:Day Name
  65200755-695e-486a-9a62-7da19916dba2, !- Monday Schedule:Day Name
  35dd90f9-2151-4da3-bf19-25df745037d9, !- Tuesday Schedule:Day Name
  1a726701-78e8-4593-be43-05a39e42b7de, !- Wednesday Schedule:Day Name
  5e8fa53b-e2b6-4a12-93c2-9ea152445757, !- Thursday Schedule:Day Name
  3671f9d2-75c8-47c6-afee-41956fe7bfa1, !- Friday Schedule:Day Name
  87f53927-61da-4900-8a63-7ea3305d7d7d, !- Saturday Schedule:Day Name
  d087321c-8b65-48fa-8513-546173ec3961, !- Holiday Schedule:Day Name
  d087321c-8b65-48fa-8513-546173ec3961, !- SummerDesignDay Schedule:Day Name
  d087321c-8b65-48fa-8513-546173ec3961, !- WinterDesignDay Schedule:Day Name
  d087321c-8b65-48fa-8513-546173ec3961, !- CustomDay1 Schedule:Day Name
  d087321c-8b65-48fa-8513-546173ec3961; !- CustomDay2 Schedule:Day Name

Schedule:Week:Daily, GlobalCO2_27,
  ae0b5dec-091d-4f21-93e8-22288559c0bf, !- Sunday Schedule:Day Name
  aef25492-b87f-4d82-b67d-23d6c6d644bf, !- Monday Schedule:Day Name
  20376181-d302-49a0-bfbb-8d5b43d39b06, !- Tuesday Schedule:Day Name
  1b56fcba-49ad-44cd-a54e-b59a8e9bcd1d, !- Wednesday Schedule:Day Name
  343eb130-b6dc-438d-b47f-37711a95135d, !- Thursday Schedule:Day Name
  f46dfce9-b2be-4792-a899-fd93cd852920, !- Friday Schedule:Day Name
  eed6ea54-86fa-4f91-8cae-9f50e9aa8d19, !- Saturday Schedule:Day Name
  ae0b5dec-091d-4f21-93e8-22288559c0bf, !- Holiday Schedule:Day Name
  ae0b5dec-091d-4f21-93e8-22288559c0bf, !- SummerDesignDay Schedule:Day Name
  ae0b5dec-091d-4f21-93e8-22288559c0bf, !- WinterDesignDay Schedule:Day Name
  ae0b5dec-091d-4f21-93e8-22288559c0bf, !- CustomDay1 Schedule:Day Name
  ae0b5dec-091d-4f21-93e8-22288559c0bf; !- CustomDay2 Schedule:Day Name

Schedule:Week:Daily, GlobalCO2_28,
  6ee3a681-84fd-4e54-a3a1-c2569edea116, !- Sunday Schedule:Day Name
  0e37e018-47bc-4212-8840-6bc9eb30855d, !- Monday Schedule:Day Name
  a054034b-dbe9-468b-b8e4-14be4568b2ed, !- Tuesday Schedule:Day Name
  d1a4f39b-5a77-4f52-bdf5-55776476182b, !- Wednesday Schedule:Day Name
  6b50f310-a2be-4218-9967-3b56f4f017ba, !- Thursday Schedule:Day Name
  85f2bd39-375f-4e73-8d05-0c3dbc2ee626, !- Friday Schedule:Day Name
  d862b1c2-4aa2-4cf6-8dd7-95576954e065, !- Saturday Schedule:Day Name
  6ee3a681-84fd-4e54-a3a1-c2569edea116, !- Holiday Schedule:Day Name
  6ee3a681-84fd-4e54-a3a1-c2569edea116, !- SummerDesignDay Schedule:Day Name
  6ee3a681-84fd-4e54-a3a1-c2569edea116, !- WinterDesignDay Schedule:Day Name
  6ee3a681-84fd-4e54-a3a1-c2569edea116, !- CustomDay1 Schedule:Day Name
  6ee3a681-84fd-4e54-a3a1-c2569edea116; !- CustomDay2 Schedule:Day Name

Schedule:Week:Daily, GlobalCO2_29,
  3d80e703-76b6-4464-9fad-a98b1973f813, !- Sunday Schedule:Day Name
  a1b390f7-e89f-455c-ae73-8339a4240309, !- Monday Schedule:Day Name
  b356f7cf-dc52-4d4e-ba6b-e4a60951b457, !- Tuesday Schedule:Day Name
  1721045d-22f1-40cc-9946-97f91cee0d72, !- Wednesday Schedule:Day Name
  84c2215d-517b-4dfd-9d7d-2eb90054a16e, !- Thursday Schedule:Day Name
  3497acf4-7ea4-4307-bc19-590118b3ca1f, !- Friday Schedule:Day Name
  3be11c90-d528-4b27-bb51-84d7512002e6, !- Saturday Schedule:Day Name
  3d80e703-76b6-4464-9fad-a98b1973f813, !- Holiday Schedule:Day Name
  3d80e703-76b6-4464-9fad-a98b1973f813, !- SummerDesignDay Schedule:Day Name
  3d80e703-76b6-4464-9fad-a98b1973f813, !- WinterDesignDay Schedule:Day Name
  3d80e703-76b6-4464-9fad-a98b1973f813, !- CustomDay1 Schedule:Day Name
  3d80e703-76b6-4464-9fad-a98b1973f813; !- CustomDay2 Schedule:Day Name

Schedule:Week:Daily, GlobalCO2_30,
  5b77f50d-51f8-4c16-a257-9bffac475d81, !- Sunday Schedule:Day Name
  47cf4ccf-6fad-4bbf-b55f-4d23dd486753, !- Monday Schedule:Day Name
  303a41d6-10bb-458c-a83f-c2b4388fb767, !- Tuesday Schedule:Day Name
  3ee0c7e3-2b1e-4c45-9ba6-5b01aec2e782, !- Wednesday Schedule:Day Name
  3af8b376-db9f-4279-9f56-4a5d4180f725, !- Thursday Schedule:Day Name
  55422840-973f-4689-a975-22432171aeb2, !- Friday Schedule:Day Name
  023da310-b5e8-4aac-838d-a8fbc31ff002, !- Saturday Schedule:Day Name
  5b77f50d-51f8-4c16-a257-9bffac475d81, !- Holiday Schedule:Day Name
  5b77f50d-51f8-4c16-a257-9bffac475d81, !- SummerDesignDay Schedule:Day Name
  5b77f50d-51f8-4c16-a257-9bffac475d81, !- WinterDesignDay Schedule:Day Name
  5b77f50d-51f8-4c16-a257-9bffac475d81, !- CustomDay1 Schedule:Day Name
  5b77f50d-51f8-4c16-a257-9bffac475d81; !- CustomDay2 Schedule:Day Name

Schedule:Week:Daily, GlobalCO2_31,
  7c50b2f2-8945-49e7-bcbd-74fe32e9f263, !- Sunday Schedule:Day Name
  50f8db64-ae25-4610-b189-0bf895ae0cf7, !- Monday Schedule:Day Name
  b5b7f10e-698c-4002-9933-4387b5512ac9, !- Tuesday Schedule:Day Name
  fae931b3-fb74-43e6-ab4f-c1ae461434ca, !- Wednesday Schedule:Day Name
  0936f3da-d47d-4d9c-b7bb-2b78fb2cdc5b, !- Thursday Schedule:Day Name
  f3cddcda-48ea-41ab-90c8-7380880db08f, !- Friday Schedule:Day Name
  6bc79b09-74a5-45ab-bc75-ed2af7456f1e, !- Saturday Schedule:Day Name
  7c50b2f2-8945-49e7-bcbd-74fe32e9f263, !- Holiday Schedule:Day Name
  7c50b2f2-8945-49e7-bcbd-74fe32e9f263, !- SummerDesignDay Schedule:Day Name
  7c50b2f2-8945-49e7-bcbd-74fe32e9f263, !- WinterDesignDay Schedule:Day Name
  7c50b2f2-8945-49e7-bcbd-74fe32e9f263, !- CustomDay1 Schedule:Day Name
  7c50b2f2-8945-49e7-bcbd-74fe32e9f263; !- CustomDay2 Schedule:Day Name

Schedule:Week:Daily, GlobalCO2_32,
  331e3046-bad4-482f-974d-b6af87d9f926, !- Sunday Schedule:Day Name
  738716d0-f91d-49ae-bb6a-8999c1f6652f, !- Monday Schedule:Day Name
  b2ea4f7b-a363-419f-87ac-864be8ae0a2f, !- Tuesday Schedule:Day Name
  4c0dffd9-37b0-41db-85a2-e69df099fce8, !- Wednesday Schedule:Day Name
  e412d928-8223-4915-9857-08e25e146feb, !- Thursday Schedule:Day Name
  6484a57c-e10f-41ef-9496-7e989e6cb385, !- Friday Schedule:Day Name
  9b4dadd9-1ffc-4ba7-94ba-21f85c64516e, !- Saturday Schedule:Day Name
  331e3046-bad4-482f-974d-b6af87d9f926, !- Holiday Schedule:Day Name
  331e3046-bad4-482f-974d-b6af87d9f926, !- SummerDesignDay Schedule:Day Name
  331e3046-bad4-482f-974d-b6af87d9f926, !- WinterDesignDay Schedule:Day Name
  331e3046-bad4-482f-974d-b6af87d9f926, !- CustomDay1 Schedule:Day Name
  331e3046-bad4-482f-974d-b6af87d9f926; !- CustomDay2 Schedule:Day Name

Schedule:Week:Daily, GlobalCO2_33,
  08ca0df2-97f0-431c-83d8-5662387a4d31, !- Sunday Schedule:Day Name
  e036b0e0-8434-4d04-9a64-da06cb29905b, !- Monday Schedule:Day Name
  11a6fbf1-2e31-4e1f-b43a-dad2c58aa870, !- Tuesday Schedule:Day Name
  94c4dc59-5475-43c5-9504-1adb1893f210, !- Wednesday Schedule:Day Name
  94c4dc59-5475-43c5-9504-1adb1893f210, !- Thursday Schedule:Day Name
  94c4dc59-5475-43c5-9504-1adb1893f210, !- Friday Schedule:Day Name
  7e7754ef-b7c0-41c3-a802-2d65087bcf9c, !- Saturday Schedule:Day Name
  08ca0df2-97f0-431c-83d8-5662387a4d31, !- Holiday Schedule:Day Name
  08ca0df2-97f0-431c-83d8-5662387a4d31, !- SummerDesignDay Schedule:Day Name
  08ca0df2-97f0-431c-83d8-5662387a4d31, !- WinterDesignDay Schedule:Day Name
  08ca0df2-97f0-431c-83d8-5662387a4d31, !- CustomDay1 Schedule:Day Name
  08ca0df2-97f0-431c-83d8-5662387a4d31; !- CustomDay2 Schedule:Day Name

Schedule:Week:Daily, GlobalCO2_34,
  752752a1-d938-49d9-82ae-d44e767abc9e, !- Sunday Schedule:Day Name
  70398374-c34a-4984-a2c2-91c053ce5212, !- Monday Schedule:Day Name
  0d984e7d-b820-4dbf-9637-b08e2c1a544b, !- Tuesday Schedule:Day Name
  67480a01-a98b-4de1-9d1a-aca748770afb, !- Wednesday Schedule:Day Name
  12488d14-31a1-413e-8567-5afc693dd656, !- Thursday Schedule:Day Name
  ce01b87c-afb4-4269-960a-cbec1823ac8c, !- Friday Schedule:Day Name
  f1538e2d-92d6-46f3-9b29-c2fbd704318d, !- Saturday Schedule:Day Name
  752752a1-d938-49d9-82ae-d44e767abc9e, !- Holiday Schedule:Day Name
  752752a1-d938-49d9-82ae-d44e767abc9e, !- SummerDesignDay Schedule:Day Name
  752752a1-d938-49d9-82ae-d44e767abc9e, !- WinterDesignDay Schedule:Day Name
  752752a1-d938-49d9-82ae-d44e767abc9e, !- CustomDay1 Schedule:Day Name
  752752a1-d938-49d9-82ae-d44e767abc9e; !- CustomDay2 Schedule:Day Name

Schedule:Week:Daily, GlobalCO2_35,
  9dc7d6f8-0e6e-4377-8bbe-e34c68ca7b99, !- Sunday Schedule:Day Name
  8d248bf4-9ea1-4df4-9c1e-7b89fe92e45c, !- Monday Schedule:Day Name
  07ec848f-f7d7-4be7-aa88-a46249a1b962, !- Tuesday Schedule:Day Name
  154058b4-eab1-4de4-83a3-ce129cfe8fe8, !- Wednesday Schedule:Day Name
  0ff234ba-8c3d-4343-ba74-5f70bd7d253e, !- Thursday Schedule:Day Name
  ec6aa8d2-7448-4d88-abd5-dd30512500e9, !- Friday Schedule:Day Name
  5f626f3d-4f3e-4363-b901-74b2f05396ec, !- Saturday Schedule:Day Name
  9dc7d6f8-0e6e-4377-8bbe-e34c68ca7b99, !- Holiday Schedule:Day Name
  9dc7d6f8-0e6e-4377-8bbe-e34c68ca7b99, !- SummerDesignDay Schedule:Day Name
  9dc7d6f8-0e6e-4377-8bbe-e34c68ca7b99, !- WinterDesignDay Schedule:Day Name
  9dc7d6f8-0e6e-4377-8bbe-e34c68ca7b99, !- CustomDay1 Schedule:Day Name
  9dc7d6f8-0e6e-4377-8bbe-e34c68ca7b99; !- CustomDay2 Schedule:Day Name

Schedule:Week:Daily, GlobalCO2_36,
  05d95b52-8bce-4b22-b6d5-b772cc11cb3e, !- Sunday Schedule:Day Name
  8d5eb76d-46db-49bd-9ef4-fac29be9741a, !- Monday Schedule:Day Name
  e179b865-dec6-40be-bb36-89ccff2d788d, !- Tuesday Schedule:Day Name
  53262f99-aaf0-4ca3-899d-0d16384b1fc3, !- Wednesday Schedule:Day Name
  3dad447a-d8dd-4f58-b8c7-ff8047ea9260, !- Thursday Schedule:Day Name
  61a38233-ed84-4b75-adbb-0cea7cae8c4c, !- Friday Schedule:Day Name
  e6787511-8c5e-4ca3-b130-64d07465e73d, !- Saturday Schedule:Day Name
  05d95b52-8bce-4b22-b6d5-b772cc11cb3e, !- Holiday Schedule:Day Name
  05d95b52-8bce-4b22-b6d5-b772cc11cb3e, !- SummerDesignDay Schedule:Day Name
  05d95b52-8bce-4b22-b6d5-b772cc11cb3e, !- WinterDesignDay Schedule:Day Name
  05d95b52-8bce-4b22-b6d5-b772cc11cb3e, !- CustomDay1 Schedule:Day Name
  05d95b52-8bce-4b22-b6d5-b772cc11cb3e; !- CustomDay2 Schedule:Day Name

Schedule:Week:Daily, GlobalCO2_37,
  60e7d710-c575-4cdf-bbac-689423d6cd26, !- Sunday Schedule:Day Name
  0f3050e1-72af-4350-9e40-f9582ff9e373, !- Monday Schedule:Day Name
  7036d72b-ffae-4a8f-821b-f478922d18a0, !- Tuesday Schedule:Day Name
  b14aa87d-2436-45c2-a95f-42015572791d, !- Wednesday Schedule:Day Name
  f76811ea-365d-49fc-96d9-06ccb304eb43, !- Thursday Schedule:Day Name
  a1919d39-2dc1-44a1-b056-0fae0596b9d7, !- Friday Schedule:Day Name
  76b32eb8-9f2b-41f9-b1df-b9a229bfbdf1, !- Saturday Schedule:Day Name
  60e7d710-c575-4cdf-bbac-689423d6cd26, !- Holiday Schedule:Day Name
  60e7d710-c575-4cdf-bbac-689423d6cd26, !- SummerDesignDay Schedule:Day Name
  60e7d710-c575-4cdf-bbac-689423d6cd26, !- WinterDesignDay Schedule:Day Name
  60e7d710-c575-4cdf-bbac-689423d6cd26, !- CustomDay1 Schedule:Day Name
  60e7d710-c575-4cdf-bbac-689423d6cd26; !- CustomDay2 Schedule:Day Name

Schedule:Week:Daily, GlobalCO2_38,
  c18f4c7f-ff83-48b2-bc1d-53c95b5da2ca, !- Sunday Schedule:Day Name
  f62b63e3-77da-4417-b09e-9f07a8445b62, !- Monday Schedule:Day Name
  fa22479a-b8c6-4b58-86c0-6d40b11c96e7, !- Tuesday Schedule:Day Name
  4520146f-f5e5-4188-b60d-ce68ef5696ea, !- Wednesday Schedule:Day Name
  7bb6cbd7-1fd9-4179-a5df-8d49533b1cc3, !- Thursday Schedule:Day Name
  0e4e210f-32a0-4139-bf24-42de9e6bce4f, !- Friday Schedule:Day Name
  d6165e50-f949-44f1-a0a5-a0fee5919031, !- Saturday Schedule:Day Name
  c18f4c7f-ff83-48b2-bc1d-53c95b5da2ca, !- Holiday Schedule:Day Name
  c18f4c7f-ff83-48b2-bc1d-53c95b5da2ca, !- SummerDesignDay Schedule:Day Name
  c18f4c7f-ff83-48b2-bc1d-53c95b5da2ca, !- WinterDesignDay Schedule:Day Name
  c18f4c7f-ff83-48b2-bc1d-53c95b5da2ca, !- CustomDay1 Schedule:Day Name
  c18f4c7f-ff83-48b2-bc1d-53c95b5da2ca; !- CustomDay2 Schedule:Day Name

Schedule:Week:Daily, GlobalCO2_39,
  a7c200c6-ba14-42c8-910d-72824195fec0, !- Sunday Schedule:Day Name
  7cb0599f-68f2-471c-89ef-5dd944b5651a, !- Monday Schedule:Day Name
  6c040a0c-cc42-43bf-af6e-de7189fd9ae5, !- Tuesday Schedule:Day Name
  8fe3f9b8-21a5-4684-9193-7cf8fca85db5, !- Wednesday Schedule:Day Name
  5b4d7dcb-2f5e-4aad-84aa-c663d4091dd5, !- Thursday Schedule:Day Name
  f9ab4c0e-a8bd-4ebe-8eca-efdfacc7ac67, !- Friday Schedule:Day Name
  84605465-2225-4d74-bef4-8a1dde7d61bf, !- Saturday Schedule:Day Name
  a7c200c6-ba14-42c8-910d-72824195fec0, !- Holiday Schedule:Day Name
  a7c200c6-ba14-42c8-910d-72824195fec0, !- SummerDesignDay Schedule:Day Name
  a7c200c6-ba14-42c8-910d-72824195fec0, !- WinterDesignDay Schedule:Day Name
  a7c200c6-ba14-42c8-910d-72824195fec0, !- CustomDay1 Schedule:Day Name
  a7c200c6-ba14-42c8-910d-72824195fec0; !- CustomDay2 Schedule:Day Name

Schedule:Week:Daily, GlobalCO2_40,
  9eb7304c-a7f2-4f9b-805c-645346da7ca6, !- Sunday Schedule:Day Name
  bfaa7f1b-f1ba-47d8-92e0-f23c05ae5992, !- Monday Schedule:Day Name
  f237d7a5-7ce9-478e-bcec-b0df69f952de, !- Tuesday Schedule:Day Name
  2d2174a6-0f1d-4250-b518-8297f8785cdb, !- Wednesday Schedule:Day Name
  198b343e-2557-49cc-b66a-567d42c4b55a, !- Thursday Schedule:Day Name
  d840034d-0aa7-47be-b2c1-34f1c3b22f5f, !- Friday Schedule:Day Name
  59be6511-05db-4500-a954-fdf3542b449a, !- Saturday Schedule:Day Name
  9eb7304c-a7f2-4f9b-805c-645346da7ca6, !- Holiday Schedule:Day Name
  9eb7304c-a7f2-4f9b-805c-645346da7ca6, !- SummerDesignDay Schedule:Day Name
  9eb7304c-a7f2-4f9b-805c-645346da7ca6, !- WinterDesignDay Schedule:Day Name
  9eb7304c-a7f2-4f9b-805c-645346da7ca6, !- CustomDay1 Schedule:Day Name
  9eb7304c-a7f2-4f9b-805c-645346da7ca6; !- CustomDay2 Schedule:Day Name

Schedule:Week:Daily, GlobalCO2_41,
  8f998cba-4986-46b3-80e4-f4d95a1a9682, !- Sunday Schedule:Day Name
  b971c479-f38d-4de7-a3f8-435cadee2658, !- Monday Schedule:Day Name
  4257f9be-ff69-4882-90ea-cb7190725b35, !- Tuesday Schedule:Day Name
  9f633cd8-d292-4496-a17e-c396063d4958, !- Wednesday Schedule:Day Name
  0038dc67-0c10-46ef-8037-a8fc3260d3b0, !- Thursday Schedule:Day Name
  49c58264-ba5c-42ee-96d1-43ef4c792f5c, !- Friday Schedule:Day Name
  abf75e50-d682-40fc-9538-4e842d0f2670, !- Saturday Schedule:Day Name
  8f998cba-4986-46b3-80e4-f4d95a1a9682, !- Holiday Schedule:Day Name
  8f998cba-4986-46b3-80e4-f4d95a1a9682, !- SummerDesignDay Schedule:Day Name
  8f998cba-4986-46b3-80e4-f4d95a1a9682, !- WinterDesignDay Schedule:Day Name
  8f998cba-4986-46b3-80e4-f4d95a1a9682, !- CustomDay1 Schedule:Day Name
  8f998cba-4986-46b3-80e4-f4d95a1a9682; !- CustomDay2 Schedule:Day Name

Schedule:Week:Daily, GlobalCO2_42,
  f2563cb7-eb7f-4787-9672-8b2d6e161ecf, !- Sunday Schedule:Day Name
  8f4f059a-e179-4949-b2bf-645aa8cb8685, !- Monday Schedule:Day Name
  ed08fcdf-214b-4ae7-902c-f81fd7c196d8, !- Tuesday Schedule:Day Name
  b1df5714-efc5-4019-aba5-1843959eaa08, !- Wednesday Schedule:Day Name
  aaaa2217-d5e0-4ede-9db5-83e478ae4d18, !- Thursday Schedule:Day Name
  17ea3cd6-5039-49c7-bed0-99fa0277178b, !- Friday Schedule:Day Name
  34900ef6-90f8-4726-aa23-689a6d1e4cf9, !- Saturday Schedule:Day Name
  f2563cb7-eb7f-4787-9672-8b2d6e161ecf, !- Holiday Schedule:Day Name
  f2563cb7-eb7f-4787-9672-8b2d6e161ecf, !- SummerDesignDay Schedule:Day Name
  f2563cb7-eb7f-4787-9672-8b2d6e161ecf, !- WinterDesignDay Schedule:Day Name
  f2563cb7-eb7f-4787-9672-8b2d6e161ecf, !- CustomDay1 Schedule:Day Name
  f2563cb7-eb7f-4787-9672-8b2d6e161ecf; !- CustomDay2 Schedule:Day Name

Schedule:Week:Daily, GlobalCO2_43,
  4129d634-3d8f-4bef-a193-450bfd78efe3, !- Sunday Schedule:Day Name
  3627c43c-ec90-49cb-ab98-81c32e837125, !- Monday Schedule:Day Name
  674c0d70-286b-419f-b43b-bb22e0b0368e, !- Tuesday Schedule:Day Name
  8ee4f8c4-8604-462a-b434-0f98c3d0a582, !- Wednesday Schedule:Day Name
  601ffd8b-50e3-47e2-b7e9-764a067599dc, !- Thursday Schedule:Day Name
  7b2d4081-b65c-4a26-9e24-7db9658739e5, !- Friday Schedule:Day Name
  1962a4b5-601e-4233-9c72-4eddc4e77a7d, !- Saturday Schedule:Day Name
  4129d634-3d8f-4bef-a193-450bfd78efe3, !- Holiday Schedule:Day Name
  4129d634-3d8f-4bef-a193-450bfd78efe3, !- SummerDesignDay Schedule:Day Name
  4129d634-3d8f-4bef-a193-450bfd78efe3, !- WinterDesignDay Schedule:Day Name
  4129d634-3d8f-4bef-a193-450bfd78efe3, !- CustomDay1 Schedule:Day Name
  4129d634-3d8f-4bef-a193-450bfd78efe3; !- CustomDay2 Schedule:Day Name

Schedule:Week:Daily, GlobalCO2_44,
  ec7c9688-6d1f-473f-9fb1-d310a85b86bc, !- Sunday Schedule:Day Name
  0746092d-52f4-4abf-aac7-6cfff0bb6c63, !- Monday Schedule:Day Name
  27002504-212d-4a45-b024-9da00ed475dc, !- Tuesday Schedule:Day Name
  7c98908a-9228-474b-9b05-e689d4f7247e, !- Wednesday Schedule:Day Name
  ee376ad5-186c-4d87-9a5d-c93d4622fc53, !- Thursday Schedule:Day Name
  9d477065-fc50-4057-bb17-b8310392ac3a, !- Friday Schedule:Day Name
  85eb044f-c187-450c-adff-4a40dbdcc0bd, !- Saturday Schedule:Day Name
  ec7c9688-6d1f-473f-9fb1-d310a85b86bc, !- Holiday Schedule:Day Name
  ec7c9688-6d1f-473f-9fb1-d310a85b86bc, !- SummerDesignDay Schedule:Day Name
  ec7c9688-6d1f-473f-9fb1-d310a85b86bc, !- WinterDesignDay Schedule:Day Name
  ec7c9688-6d1f-473f-9fb1-d310a85b86bc, !- CustomDay1 Schedule:Day Name
  ec7c9688-6d1f-473f-9fb1-d310a85b86bc; !- CustomDay2 Schedule:Day Name

Schedule:Week:Daily, GlobalCO2_45,
  736c5dbb-3872-441d-8f96-e5e2981cd63c, !- Sunday Schedule:Day Name
  8ca92f4c-e2ce-4057-950a-5f0d838c3c58, !- Monday Schedule:Day Name
  d89b520a-c49b-4289-83d9-3abeb3dabd43, !- Tuesday Schedule:Day Name
  d92af288-9f16-4055-a3a7-0b5588aeaca3, !- Wednesday Schedule:Day Name
  6d591fb9-e45c-4552-9e57-533e84e6bd84, !- Thursday Schedule:Day Name
  4315e473-8c3e-4d3a-b56f-1a92df47b849, !- Friday Schedule:Day Name
  65aa4e1c-841d-43bd-9abf-c3eefea3aefe, !- Saturday Schedule:Day Name
  736c5dbb-3872-441d-8f96-e5e2981cd63c, !- Holiday Schedule:Day Name
  736c5dbb-3872-441d-8f96-e5e2981cd63c, !- SummerDesignDay Schedule:Day Name
  736c5dbb-3872-441d-8f96-e5e2981cd63c, !- WinterDesignDay Schedule:Day Name
  736c5dbb-3872-441d-8f96-e5e2981cd63c, !- CustomDay1 Schedule:Day Name
  736c5dbb-3872-441d-8f96-e5e2981cd63c; !- CustomDay2 Schedule:Day Name

Schedule:Week:Daily, GlobalCO2_46,
  3f5bcc28-406e-4478-bf77-5179d52d2c13, !- Sunday Schedule:Day Name
  991d02d8-b765-427a-a4b8-579c62840f06, !- Monday Schedule:Day Name
  6b7a5304-c62c-4d97-8004-100bf8815376, !- Tuesday Schedule:Day Name
  18a63f4c-7d42-4760-8897-04022b84f69c, !- Wednesday Schedule:Day Name
  15f314b0-ce3e-411e-add5-4b46a99147de, !- Thursday Schedule:Day Name
  15eb1be7-4c80-4dfd-ab18-cad7b85e85e3, !- Friday Schedule:Day Name
  1647bb68-9dcf-4f5a-97a5-6f1c3366130c, !- Saturday Schedule:Day Name
  3f5bcc28-406e-4478-bf77-5179d52d2c13, !- Holiday Schedule:Day Name
  3f5bcc28-406e-4478-bf77-5179d52d2c13, !- SummerDesignDay Schedule:Day Name
  3f5bcc28-406e-4478-bf77-5179d52d2c13, !- WinterDesignDay Schedule:Day Name
  3f5bcc28-406e-4478-bf77-5179d52d2c13, !- CustomDay1 Schedule:Day Name
  3f5bcc28-406e-4478-bf77-5179d52d2c13; !- CustomDay2 Schedule:Day Name

Schedule:Week:Daily, GlobalCO2_47,
  f60ea10f-d01b-4a5c-913e-860687fc4c1b, !- Sunday Schedule:Day Name
  41aaa266-9c1a-4baa-ab07-044f2e2eb800, !- Monday Schedule:Day Name
  cffbe1c2-9dbc-47c1-99a6-774322a2443a, !- Tuesday Schedule:Day Name
  2f0df541-cfd0-4e8a-b7a1-a82f86030702, !- Wednesday Schedule:Day Name
  f25926f2-c81b-4f21-80c0-154462de0e5f, !- Thursday Schedule:Day Name
  d406048f-7c54-4a49-be74-ba365bed3bfb, !- Friday Schedule:Day Name
  d7009437-693c-46ce-9e85-98be55edbf62, !- Saturday Schedule:Day Name
  f60ea10f-d01b-4a5c-913e-860687fc4c1b, !- Holiday Schedule:Day Name
  f60ea10f-d01b-4a5c-913e-860687fc4c1b, !- SummerDesignDay Schedule:Day Name
  f60ea10f-d01b-4a5c-913e-860687fc4c1b, !- WinterDesignDay Schedule:Day Name
  f60ea10f-d01b-4a5c-913e-860687fc4c1b, !- CustomDay1 Schedule:Day Name
  f60ea10f-d01b-4a5c-913e-860687fc4c1b; !- CustomDay2 Schedule:Day Name

Schedule:Week:Daily, GlobalCO2_48,
  a99c916e-361d-404f-8a2e-7e2ad4c3eb47, !- Sunday Schedule:Day Name
  8793b685-8c22-4b31-b35e-618595fcaaf8, !- Monday Schedule:Day Name
  97719efc-fd1f-427d-b800-aa0754bfe900, !- Tuesday Schedule:Day Name
  e0fc19d2-dff7-4739-b09f-5ebf74c5fe0e, !- Wednesday Schedule:Day Name
  16073ab4-2527-4ce2-b577-bd430a41dd5f, !- Thursday Schedule:Day Name
  6db8ccbf-8e89-41e2-867d-e94ad568f327, !- Friday Schedule:Day Name
  fc029b17-757f-40b0-a531-c95c6eb37c9b, !- Saturday Schedule:Day Name
  a99c916e-361d-404f-8a2e-7e2ad4c3eb47, !- Holiday Schedule:Day Name
  a99c916e-361d-404f-8a2e-7e2ad4c3eb47, !- SummerDesignDay Schedule:Day Name
  a99c916e-361d-404f-8a2e-7e2ad4c3eb47, !- WinterDesignDay Schedule:Day Name
  a99c916e-361d-404f-8a2e-7e2ad4c3eb47, !- CustomDay1 Schedule:Day Name
  a99c916e-361d-404f-8a2e-7e2ad4c3eb47; !- CustomDay2 Schedule:Day Name

Schedule:Week:Daily, GlobalCO2_49,
  ff4f28be-d764-43bd-93a8-04831ebbcaf6, !- Sunday Schedule:Day Name
  d1365ad8-9bdb-4306-a8bd-cc7c2b21a4ff, !- Monday Schedule:Day Name
  20b49e63-42b0-4d42-8918-e5dc77b17947, !- Tuesday Schedule:Day Name
  4211a34e-e939-4752-92e5-f87d9c18e87f, !- Wednesday Schedule:Day Name
  55f8b172-8012-4784-97a1-beaf4df96472, !- Thursday Schedule:Day Name
  4c892d44-68b6-4224-a674-523a6efe9fec, !- Friday Schedule:Day Name
  4df0867f-ce7a-44e3-b06c-06c80115dee7, !- Saturday Schedule:Day Name
  ff4f28be-d764-43bd-93a8-04831ebbcaf6, !- Holiday Schedule:Day Name
  ff4f28be-d764-43bd-93a8-04831ebbcaf6, !- SummerDesignDay Schedule:Day Name
  ff4f28be-d764-43bd-93a8-04831ebbcaf6, !- WinterDesignDay Schedule:Day Name
  ff4f28be-d764-43bd-93a8-04831ebbcaf6, !- CustomDay1 Schedule:Day Name
  ff4f28be-d764-43bd-93a8-04831ebbcaf6; !- CustomDay2 Schedule:Day Name

Schedule:Week:Daily, GlobalCO2_50,
  c08c9cb9-5319-491a-8b50-69c35d6da706, !- Sunday Schedule:Day Name
  cdfe1d73-89a9-4fbd-8fa7-963820881530, !- Monday Schedule:Day Name
  2ce892b3-4a03-426f-ba00-02a288c43bf8, !- Tuesday Schedule:Day Name
  fee14d0f-7fba-45ac-8a72-3ba036d11814, !- Wednesday Schedule:Day Name
  db9ffaee-8f7f-498e-9418-62808e0915a1, !- Thursday Schedule:Day Name
  c748ef99-820d-4957-a9e8-02f3609be240, !- Friday Schedule:Day Name
  085240db-2fff-4aa0-8eaf-bff2a10576ec, !- Saturday Schedule:Day Name
  c08c9cb9-5319-491a-8b50-69c35d6da706, !- Holiday Schedule:Day Name
  c08c9cb9-5319-491a-8b50-69c35d6da706, !- SummerDesignDay Schedule:Day Name
  c08c9cb9-5319-491a-8b50-69c35d6da706, !- WinterDesignDay Schedule:Day Name
  c08c9cb9-5319-491a-8b50-69c35d6da706, !- CustomDay1 Schedule:Day Name
  c08c9cb9-5319-491a-8b50-69c35d6da706; !- CustomDay2 Schedule:Day Name

Schedule:Week:Daily, GlobalCO2_51,
  92d075c4-2384-4077-89d4-3361a973f587, !- Sunday Schedule:Day Name
  304f4a86-f912-4ac4-a118-3e868f4288e6, !- Monday Schedule:Day Name
  a1a73bc4-ac08-4a1b-9c59-8dc5db2a2539, !- Tuesday Schedule:Day Name
  98a5222e-3f62-49a2-bbdf-c69f322ed480, !- Wednesday Schedule:Day Name
  e828dc2d-7797-4562-8c5f-f636e1bccfeb, !- Thursday Schedule:Day Name
  4876bd11-00f7-427a-b1de-3d6ecd88e62a, !- Friday Schedule:Day Name
  a1b1c559-4b58-42ea-a261-67ec88b48e7f, !- Saturday Schedule:Day Name
  92d075c4-2384-4077-89d4-3361a973f587, !- Holiday Schedule:Day Name
  92d075c4-2384-4077-89d4-3361a973f587, !- SummerDesignDay Schedule:Day Name
  92d075c4-2384-4077-89d4-3361a973f587, !- WinterDesignDay Schedule:Day Name
  92d075c4-2384-4077-89d4-3361a973f587, !- CustomDay1 Schedule:Day Name
  92d075c4-2384-4077-89d4-3361a973f587; !- CustomDay2 Schedule:Day Name

Schedule:Week:Daily, GlobalCO2_52,
  951a8510-b766-447b-bd18-4d624236bb34, !- Sunday Schedule:Day Name
  951a8510-b766-447b-bd18-4d624236bb34, !- Monday Schedule:Day Name
  951a8510-b766-447b-bd18-4d624236bb34, !- Tuesday Schedule:Day Name
  951a8510-b766-447b-bd18-4d624236bb34, !- Wednesday Schedule:Day Name
  951a8510-b766-447b-bd18-4d624236bb34, !- Thursday Schedule:Day Name
  951a8510-b766-447b-bd18-4d624236bb34, !- Friday Schedule:Day Name
  951a8510-b766-447b-bd18-4d624236bb34, !- Saturday Schedule:Day Name
  951a8510-b766-447b-bd18-4d624236bb34, !- Holiday Schedule:Day Name
  951a8510-b766-447b-bd18-4d624236bb34, !- SummerDesignDay Schedule:Day Name
  951a8510-b766-447b-bd18-4d624236bb34, !- WinterDesignDay Schedule:Day Name
  951a8510-b766-447b-bd18-4d624236bb34, !- CustomDay1 Schedule:Day Name
  951a8510-b766-447b-bd18-4d624236bb34; !- CustomDay2 Schedule:Day Name


Schedule:Year,MidriseApartment-3B_APT_OCC_SCH_Year,
Fraction,
MidriseApartment-3B_APT_OCC_SCH_Year_0,1,1,12,31;

Schedule:Week:Daily, MidriseApartment-3B_APT_OCC_SCH_Year_0,
  14bb975d-990e-4196-ace4-715ee382a3b8, !- Sunday Schedule:Day Name
  14bb975d-990e-4196-ace4-715ee382a3b8, !- Monday Schedule:Day Name
  14bb975d-990e-4196-ace4-715ee382a3b8, !- Tuesday Schedule:Day Name
  14bb975d-990e-4196-ace4-715ee382a3b8, !- Wednesday Schedule:Day Name
  14bb975d-990e-4196-ace4-715ee382a3b8, !- Thursday Schedule:Day Name
  14bb975d-990e-4196-ace4-715ee382a3b8, !- Friday Schedule:Day Name
  14bb975d-990e-4196-ace4-715ee382a3b8, !- Saturday Schedule:Day Name
  14bb975d-990e-4196-ace4-715ee382a3b8, !- Holiday Schedule:Day Name
  14bb975d-990e-4196-ace4-715ee382a3b8, !- SummerDesignDay Schedule:Day Name
  14bb975d-990e-4196-ace4-715ee382a3b8, !- WinterDesignDay Schedule:Day Name
  14bb975d-990e-4196-ace4-715ee382a3b8, !- CustomDay1 Schedule:Day Name
  14bb975d-990e-4196-ace4-715ee382a3b8; !- CustomDay2 Schedule:Day Name


Schedule:Year,lightsResidential,
Fraction,
lightsResidential_0,1,1,12,31;

Schedule:Week:Daily, lightsResidential_0,
  12e0b064-d9bd-4e15-bfdf-feaf6bab5c2a, !- Sunday Schedule:Day Name
  12e0b064-d9bd-4e15-bfdf-feaf6bab5c2a, !- Monday Schedule:Day Name
  12e0b064-d9bd-4e15-bfdf-feaf6bab5c2a, !- Tuesday Schedule:Day Name
  12e0b064-d9bd-4e15-bfdf-feaf6bab5c2a, !- Wednesday Schedule:Day Name
  12e0b064-d9bd-4e15-bfdf-feaf6bab5c2a, !- Thursday Schedule:Day Name
  12e0b064-d9bd-4e15-bfdf-feaf6bab5c2a, !- Friday Schedule:Day Name
  12e0b064-d9bd-4e15-bfdf-feaf6bab5c2a, !- Saturday Schedule:Day Name
  12e0b064-d9bd-4e15-bfdf-feaf6bab5c2a, !- Holiday Schedule:Day Name
  12e0b064-d9bd-4e15-bfdf-feaf6bab5c2a, !- SummerDesignDay Schedule:Day Name
  12e0b064-d9bd-4e15-bfdf-feaf6bab5c2a, !- WinterDesignDay Schedule:Day Name
  12e0b064-d9bd-4e15-bfdf-feaf6bab5c2a, !- CustomDay1 Schedule:Day Name
  12e0b064-d9bd-4e15-bfdf-feaf6bab5c2a; !- CustomDay2 Schedule:Day Name


Schedule:Year,equipResidential,
Fraction,
equipResidential_0,1,1,12,31;

Schedule:Week:Daily, equipResidential_0,
  d7b9a0d0-8ef3-4efc-98d6-84cd40ab6504, !- Sunday Schedule:Day Name
  d7b9a0d0-8ef3-4efc-98d6-84cd40ab6504, !- Monday Schedule:Day Name
  d7b9a0d0-8ef3-4efc-98d6-84cd40ab6504, !- Tuesday Schedule:Day Name
  d7b9a0d0-8ef3-4efc-98d6-84cd40ab6504, !- Wednesday Schedule:Day Name
  d7b9a0d0-8ef3-4efc-98d6-84cd40ab6504, !- Thursday Schedule:Day Name
  d7b9a0d0-8ef3-4efc-98d6-84cd40ab6504, !- Friday Schedule:Day Name
  d7b9a0d0-8ef3-4efc-98d6-84cd40ab6504, !- Saturday Schedule:Day Name
  d7b9a0d0-8ef3-4efc-98d6-84cd40ab6504, !- Holiday Schedule:Day Name
  d7b9a0d0-8ef3-4efc-98d6-84cd40ab6504, !- SummerDesignDay Schedule:Day Name
  d7b9a0d0-8ef3-4efc-98d6-84cd40ab6504, !- WinterDesignDay Schedule:Day Name
  d7b9a0d0-8ef3-4efc-98d6-84cd40ab6504, !- CustomDay1 Schedule:Day Name
  d7b9a0d0-8ef3-4efc-98d6-84cd40ab6504; !- CustomDay2 Schedule:Day Name


Schedule:Year,HeatAvail_Uhall_0,
Fraction,
HeatAvail_Uhall_0_0,1,1,1,7, 
HeatAvail_Uhall_0_1,1,8,1,14, 
HeatAvail_Uhall_0_2,1,15,1,21, 
HeatAvail_Uhall_0_3,1,22,1,28, 
HeatAvail_Uhall_0_4,1,29,2,4, 
HeatAvail_Uhall_0_5,2,5,2,11, 
HeatAvail_Uhall_0_6,2,12,2,18, 
HeatAvail_Uhall_0_7,2,19,2,25, 
HeatAvail_Uhall_0_8,2,26,3,4, 
HeatAvail_Uhall_0_9,3,5,3,11, 
HeatAvail_Uhall_0_10,3,12,3,18, 
HeatAvail_Uhall_0_11,3,19,3,25, 
HeatAvail_Uhall_0_12,3,26,4,1, 
HeatAvail_Uhall_0_13,4,2,4,8, 
HeatAvail_Uhall_0_14,4,9,4,15, 
HeatAvail_Uhall_0_15,4,16,4,22, 
HeatAvail_Uhall_0_16,4,23,4,29, 
HeatAvail_Uhall_0_17,4,30,5,6, 
HeatAvail_Uhall_0_18,5,7,5,13, 
HeatAvail_Uhall_0_19,5,14,5,20, 
HeatAvail_Uhall_0_20,5,21,5,27, 
HeatAvail_Uhall_0_21,5,28,6,3, 
HeatAvail_Uhall_0_22,6,4,6,10, 
HeatAvail_Uhall_0_23,6,11,6,17, 
HeatAvail_Uhall_0_24,6,18,6,24, 
HeatAvail_Uhall_0_25,6,25,7,1, 
HeatAvail_Uhall_0_26,7,2,7,8, 
HeatAvail_Uhall_0_27,7,9,7,15, 
HeatAvail_Uhall_0_28,7,16,7,22, 
HeatAvail_Uhall_0_29,7,23,7,29, 
HeatAvail_Uhall_0_30,7,30,8,5, 
HeatAvail_Uhall_0_31,8,6,8,12, 
HeatAvail_Uhall_0_32,8,13,8,19, 
HeatAvail_Uhall_0_33,8,20,8,26, 
HeatAvail_Uhall_0_34,8,27,9,2, 
HeatAvail_Uhall_0_35,9,3,9,9, 
HeatAvail_Uhall_0_36,9,10,9,16, 
HeatAvail_Uhall_0_37,9,17,9,23, 
HeatAvail_Uhall_0_38,9,24,9,30, 
HeatAvail_Uhall_0_39,10,1,10,7, 
HeatAvail_Uhall_0_40,10,8,10,14, 
HeatAvail_Uhall_0_41,10,15,10,21, 
HeatAvail_Uhall_0_42,10,22,10,28, 
HeatAvail_Uhall_0_43,10,29,11,4, 
HeatAvail_Uhall_0_44,11,5,11,11, 
HeatAvail_Uhall_0_45,11,12,11,18, 
HeatAvail_Uhall_0_46,11,19,11,25, 
HeatAvail_Uhall_0_47,11,26,12,2, 
HeatAvail_Uhall_0_48,12,3,12,9, 
HeatAvail_Uhall_0_49,12,10,12,16, 
HeatAvail_Uhall_0_50,12,17,12,23, 
HeatAvail_Uhall_0_51,12,24,12,30, 
HeatAvail_Uhall_0_52,12,31,12,31;

Schedule:Week:Daily, HeatAvail_Uhall_0_0,
  41e3706f-bfd9-475a-a1c9-97befab7e728, !- Sunday Schedule:Day Name
  003c1343-9910-4965-afdd-74b0b1b28fbc, !- Monday Schedule:Day Name
  592fde84-3739-4fcd-9dbb-e82d49b38008, !- Tuesday Schedule:Day Name
  c7d6d40d-0525-452e-b572-e7be6537316a, !- Wednesday Schedule:Day Name
  a67115f7-0c0f-4c55-8e0f-8c1563bca754, !- Thursday Schedule:Day Name
  194f9090-8a79-4b3e-b2cb-84600edd803d, !- Friday Schedule:Day Name
  fdb4c805-b148-45b7-8a80-2cfb62477cf0, !- Saturday Schedule:Day Name
  41e3706f-bfd9-475a-a1c9-97befab7e728, !- Holiday Schedule:Day Name
  41e3706f-bfd9-475a-a1c9-97befab7e728, !- SummerDesignDay Schedule:Day Name
  41e3706f-bfd9-475a-a1c9-97befab7e728, !- WinterDesignDay Schedule:Day Name
  41e3706f-bfd9-475a-a1c9-97befab7e728, !- CustomDay1 Schedule:Day Name
  41e3706f-bfd9-475a-a1c9-97befab7e728; !- CustomDay2 Schedule:Day Name

Schedule:Week:Daily, HeatAvail_Uhall_0_1,
  db07ce6c-1d0b-40f1-9724-6f7446501cfa, !- Sunday Schedule:Day Name
  2ef58c4e-7782-433d-b245-3dfc69d2d938, !- Monday Schedule:Day Name
  8554aa95-b668-4dca-a63c-ef558b6840aa, !- Tuesday Schedule:Day Name
  f2ee4175-6857-4605-9cf5-0d689a499c7e, !- Wednesday Schedule:Day Name
  77121a80-c25f-4aee-a029-030d4ae72bd5, !- Thursday Schedule:Day Name
  fffc3896-25cf-44af-94cd-55cf098dfa24, !- Friday Schedule:Day Name
  149ccc56-7a22-414c-9f75-6d599b7fdbc0, !- Saturday Schedule:Day Name
  db07ce6c-1d0b-40f1-9724-6f7446501cfa, !- Holiday Schedule:Day Name
  db07ce6c-1d0b-40f1-9724-6f7446501cfa, !- SummerDesignDay Schedule:Day Name
  db07ce6c-1d0b-40f1-9724-6f7446501cfa, !- WinterDesignDay Schedule:Day Name
  db07ce6c-1d0b-40f1-9724-6f7446501cfa, !- CustomDay1 Schedule:Day Name
  db07ce6c-1d0b-40f1-9724-6f7446501cfa; !- CustomDay2 Schedule:Day Name

Schedule:Week:Daily, HeatAvail_Uhall_0_2,
  7c6f2c83-bb2d-4e27-9aec-c8de8118fafc, !- Sunday Schedule:Day Name
  a3f53767-956a-4abc-8ccb-cce3d777838f, !- Monday Schedule:Day Name
  77121a80-c25f-4aee-a029-030d4ae72bd5, !- Tuesday Schedule:Day Name
  b1e451ea-7f95-4729-8564-cad973b34af2, !- Wednesday Schedule:Day Name
  003c1343-9910-4965-afdd-74b0b1b28fbc, !- Thursday Schedule:Day Name
  d85c2b70-7dd5-425e-834c-41bbc1fc5abe, !- Friday Schedule:Day Name
  32c04440-bd43-4dae-8e45-5b77bce29465, !- Saturday Schedule:Day Name
  7c6f2c83-bb2d-4e27-9aec-c8de8118fafc, !- Holiday Schedule:Day Name
  7c6f2c83-bb2d-4e27-9aec-c8de8118fafc, !- SummerDesignDay Schedule:Day Name
  7c6f2c83-bb2d-4e27-9aec-c8de8118fafc, !- WinterDesignDay Schedule:Day Name
  7c6f2c83-bb2d-4e27-9aec-c8de8118fafc, !- CustomDay1 Schedule:Day Name
  7c6f2c83-bb2d-4e27-9aec-c8de8118fafc; !- CustomDay2 Schedule:Day Name

Schedule:Week:Daily, HeatAvail_Uhall_0_3,
  fc0c8862-1914-459e-ac44-f57620b0de64, !- Sunday Schedule:Day Name
  43b29f55-281e-49cd-b712-60673e09300b, !- Monday Schedule:Day Name
  bc2b132b-3301-4997-a409-8251784d9710, !- Tuesday Schedule:Day Name
  a3b6eae0-cd16-4146-a72c-33d93536b6d5, !- Wednesday Schedule:Day Name
  a297b178-5400-48e8-8c2b-5383d49696c1, !- Thursday Schedule:Day Name
  41e3706f-bfd9-475a-a1c9-97befab7e728, !- Friday Schedule:Day Name
  0bd720d0-16f9-43d1-8c99-a7f570c083cc, !- Saturday Schedule:Day Name
  fc0c8862-1914-459e-ac44-f57620b0de64, !- Holiday Schedule:Day Name
  fc0c8862-1914-459e-ac44-f57620b0de64, !- SummerDesignDay Schedule:Day Name
  fc0c8862-1914-459e-ac44-f57620b0de64, !- WinterDesignDay Schedule:Day Name
  fc0c8862-1914-459e-ac44-f57620b0de64, !- CustomDay1 Schedule:Day Name
  fc0c8862-1914-459e-ac44-f57620b0de64; !- CustomDay2 Schedule:Day Name

Schedule:Week:Daily, HeatAvail_Uhall_0_4,
  34931478-d65c-4a1a-80c3-ffcafce02f3b, !- Sunday Schedule:Day Name
  0be8be69-e262-4302-bc3f-879d800dc5b3, !- Monday Schedule:Day Name
  393e0f77-cf9c-4917-a52e-2c18a27275d3, !- Tuesday Schedule:Day Name
  ec5d5c53-5788-4abc-8180-0154a594163a, !- Wednesday Schedule:Day Name
  1c7e563f-1008-46b0-a08b-5b2059d839fd, !- Thursday Schedule:Day Name
  25d9ae31-c511-4500-9310-47b36bc8755f, !- Friday Schedule:Day Name
  0be8be69-e262-4302-bc3f-879d800dc5b3, !- Saturday Schedule:Day Name
  34931478-d65c-4a1a-80c3-ffcafce02f3b, !- Holiday Schedule:Day Name
  34931478-d65c-4a1a-80c3-ffcafce02f3b, !- SummerDesignDay Schedule:Day Name
  34931478-d65c-4a1a-80c3-ffcafce02f3b, !- WinterDesignDay Schedule:Day Name
  34931478-d65c-4a1a-80c3-ffcafce02f3b, !- CustomDay1 Schedule:Day Name
  34931478-d65c-4a1a-80c3-ffcafce02f3b; !- CustomDay2 Schedule:Day Name

Schedule:Week:Daily, HeatAvail_Uhall_0_5,
  328c9e66-c026-4f7c-941e-35b09cce5eaf, !- Sunday Schedule:Day Name
  0bcc7613-16c7-4f50-b4d0-f3000df73108, !- Monday Schedule:Day Name
  95e1dacb-4847-45bb-8ff6-329f5872c8ae, !- Tuesday Schedule:Day Name
  a368cf70-1db9-4d2f-addf-36a33630691f, !- Wednesday Schedule:Day Name
  cfd69087-4443-4d2d-83c7-c51484c2fd0f, !- Thursday Schedule:Day Name
  eaea7ef1-044b-4db2-9232-ebc82cdee0b3, !- Friday Schedule:Day Name
  e92e06b3-11b9-4b8d-8aab-264918818f6d, !- Saturday Schedule:Day Name
  328c9e66-c026-4f7c-941e-35b09cce5eaf, !- Holiday Schedule:Day Name
  328c9e66-c026-4f7c-941e-35b09cce5eaf, !- SummerDesignDay Schedule:Day Name
  328c9e66-c026-4f7c-941e-35b09cce5eaf, !- WinterDesignDay Schedule:Day Name
  328c9e66-c026-4f7c-941e-35b09cce5eaf, !- CustomDay1 Schedule:Day Name
  328c9e66-c026-4f7c-941e-35b09cce5eaf; !- CustomDay2 Schedule:Day Name

Schedule:Week:Daily, HeatAvail_Uhall_0_6,
  9028a64a-fa1d-4ac5-ba6b-f5c559afd600, !- Sunday Schedule:Day Name
  e5ca6391-3192-4c0e-8131-34b922f7b05b, !- Monday Schedule:Day Name
  8a7d1130-7860-4e5d-9136-6d20c174eaa8, !- Tuesday Schedule:Day Name
  10834950-445a-4d6c-86dc-96d8ef2e6718, !- Wednesday Schedule:Day Name
  0af50177-0b11-49a9-aba1-fc396bc8b445, !- Thursday Schedule:Day Name
  cb927db4-a6bb-4d7f-b4ff-91dc8e4b721c, !- Friday Schedule:Day Name
  43a85af4-5db7-43c8-b0b0-0cfb932f600b, !- Saturday Schedule:Day Name
  9028a64a-fa1d-4ac5-ba6b-f5c559afd600, !- Holiday Schedule:Day Name
  9028a64a-fa1d-4ac5-ba6b-f5c559afd600, !- SummerDesignDay Schedule:Day Name
  9028a64a-fa1d-4ac5-ba6b-f5c559afd600, !- WinterDesignDay Schedule:Day Name
  9028a64a-fa1d-4ac5-ba6b-f5c559afd600, !- CustomDay1 Schedule:Day Name
  9028a64a-fa1d-4ac5-ba6b-f5c559afd600; !- CustomDay2 Schedule:Day Name

Schedule:Week:Daily, HeatAvail_Uhall_0_7,
  bea93d85-fc23-433c-a16f-b5a2a5c822be, !- Sunday Schedule:Day Name
  db693b62-aad0-4b69-a419-fa5af28b9cf3, !- Monday Schedule:Day Name
  a7c11301-8e18-412d-a485-a5004bdc39de, !- Tuesday Schedule:Day Name
  d241b76a-ac68-4807-ab79-8a768b6f61a7, !- Wednesday Schedule:Day Name
  5369e767-0d8e-4b32-8cd4-c346fa9b5939, !- Thursday Schedule:Day Name
  f7156fc8-91b6-48a4-9085-4e32a69e2b1a, !- Friday Schedule:Day Name
  35fda236-6921-48e6-9830-098c5263a011, !- Saturday Schedule:Day Name
  bea93d85-fc23-433c-a16f-b5a2a5c822be, !- Holiday Schedule:Day Name
  bea93d85-fc23-433c-a16f-b5a2a5c822be, !- SummerDesignDay Schedule:Day Name
  bea93d85-fc23-433c-a16f-b5a2a5c822be, !- WinterDesignDay Schedule:Day Name
  bea93d85-fc23-433c-a16f-b5a2a5c822be, !- CustomDay1 Schedule:Day Name
  bea93d85-fc23-433c-a16f-b5a2a5c822be; !- CustomDay2 Schedule:Day Name

Schedule:Week:Daily, HeatAvail_Uhall_0_8,
  fd62cacc-abe7-44f2-8770-210d11e35613, !- Sunday Schedule:Day Name
  7ee65adc-2d17-47fb-89dd-ade89af1af84, !- Monday Schedule:Day Name
  c0654989-8f39-4b18-864e-eb22d4a3342d, !- Tuesday Schedule:Day Name
  23d9486e-cd81-49e8-b8ac-7b3449a86746, !- Wednesday Schedule:Day Name
  5f4d8d22-0120-4d1b-a6b7-a035c5265ab1, !- Thursday Schedule:Day Name
  674b06d3-b604-48ea-86a4-add5b25dbf48, !- Friday Schedule:Day Name
  1d82ed7c-05c0-4b74-ae5d-eac78ce218c4, !- Saturday Schedule:Day Name
  fd62cacc-abe7-44f2-8770-210d11e35613, !- Holiday Schedule:Day Name
  fd62cacc-abe7-44f2-8770-210d11e35613, !- SummerDesignDay Schedule:Day Name
  fd62cacc-abe7-44f2-8770-210d11e35613, !- WinterDesignDay Schedule:Day Name
  fd62cacc-abe7-44f2-8770-210d11e35613, !- CustomDay1 Schedule:Day Name
  fd62cacc-abe7-44f2-8770-210d11e35613; !- CustomDay2 Schedule:Day Name

Schedule:Week:Daily, HeatAvail_Uhall_0_9,
  0e1ef495-01ff-4a26-b207-13c7c6a3d751, !- Sunday Schedule:Day Name
  0a4c2ba7-d084-4828-9f66-3e72c7ca00d1, !- Monday Schedule:Day Name
  1d82ed7c-05c0-4b74-ae5d-eac78ce218c4, !- Tuesday Schedule:Day Name
  165a3cea-29f3-4c38-8ee1-088ed4f1a1f9, !- Wednesday Schedule:Day Name
  bca71fbe-a804-43d9-82c7-7b29d92ffc62, !- Thursday Schedule:Day Name
  8779e041-43cc-4635-9be7-dc18ccee0d4f, !- Friday Schedule:Day Name
  e2581a7b-43c2-4a59-aa58-16e064d3d041, !- Saturday Schedule:Day Name
  0e1ef495-01ff-4a26-b207-13c7c6a3d751, !- Holiday Schedule:Day Name
  0e1ef495-01ff-4a26-b207-13c7c6a3d751, !- SummerDesignDay Schedule:Day Name
  0e1ef495-01ff-4a26-b207-13c7c6a3d751, !- WinterDesignDay Schedule:Day Name
  0e1ef495-01ff-4a26-b207-13c7c6a3d751, !- CustomDay1 Schedule:Day Name
  0e1ef495-01ff-4a26-b207-13c7c6a3d751; !- CustomDay2 Schedule:Day Name

Schedule:Week:Daily, HeatAvail_Uhall_0_10,
  6c68c950-6354-4773-92b4-119c0da3ab9c, !- Sunday Schedule:Day Name
  1d82ed7c-05c0-4b74-ae5d-eac78ce218c4, !- Monday Schedule:Day Name
  d043911a-a4e4-4a07-b4eb-d4b02cd2e68c, !- Tuesday Schedule:Day Name
  0054b859-2743-4922-be13-5121baa5f1fc, !- Wednesday Schedule:Day Name
  d57da6fb-427e-400c-902e-f2079f1c96f6, !- Thursday Schedule:Day Name
  24eab098-ccec-4794-8b70-b730c65f53b9, !- Friday Schedule:Day Name
  e458a064-98d4-4dda-8a7b-4235616c96f6, !- Saturday Schedule:Day Name
  6c68c950-6354-4773-92b4-119c0da3ab9c, !- Holiday Schedule:Day Name
  6c68c950-6354-4773-92b4-119c0da3ab9c, !- SummerDesignDay Schedule:Day Name
  6c68c950-6354-4773-92b4-119c0da3ab9c, !- WinterDesignDay Schedule:Day Name
  6c68c950-6354-4773-92b4-119c0da3ab9c, !- CustomDay1 Schedule:Day Name
  6c68c950-6354-4773-92b4-119c0da3ab9c; !- CustomDay2 Schedule:Day Name

Schedule:Week:Daily, HeatAvail_Uhall_0_11,
  1d82ed7c-05c0-4b74-ae5d-eac78ce218c4, !- Sunday Schedule:Day Name
  1dd2a086-aa54-43d9-8216-67f41470d57f, !- Monday Schedule:Day Name
  7db43608-da88-4c74-9608-fe96a58b802d, !- Tuesday Schedule:Day Name
  d081e0ff-e50c-4c41-94dc-eb66605a89d4, !- Wednesday Schedule:Day Name
  41d41c44-63b3-4d16-ae11-5af6e43e17b0, !- Thursday Schedule:Day Name
  c43bcfc8-d056-4e56-be7d-fce85ea835ef, !- Friday Schedule:Day Name
  9505b86a-ae0c-4c3f-bbab-e2abc7e9cd5e, !- Saturday Schedule:Day Name
  1d82ed7c-05c0-4b74-ae5d-eac78ce218c4, !- Holiday Schedule:Day Name
  1d82ed7c-05c0-4b74-ae5d-eac78ce218c4, !- SummerDesignDay Schedule:Day Name
  1d82ed7c-05c0-4b74-ae5d-eac78ce218c4, !- WinterDesignDay Schedule:Day Name
  1d82ed7c-05c0-4b74-ae5d-eac78ce218c4, !- CustomDay1 Schedule:Day Name
  1d82ed7c-05c0-4b74-ae5d-eac78ce218c4; !- CustomDay2 Schedule:Day Name

Schedule:Week:Daily, HeatAvail_Uhall_0_12,
  07f88278-11cf-423e-9762-aa66966af8c8, !- Sunday Schedule:Day Name
  736c379e-de2b-405b-ab38-5d560375cccc, !- Monday Schedule:Day Name
  15e9c3dd-f94b-46ad-94c2-7e84793e8880, !- Tuesday Schedule:Day Name
  f8150d4e-54ab-47d6-8b5e-4338ca9fef7d, !- Wednesday Schedule:Day Name
  cc2d64af-ed4f-4791-9c5b-00e883829291, !- Thursday Schedule:Day Name
  455044cb-f37e-440c-9569-b0253388d59d, !- Friday Schedule:Day Name
  8dde9b7d-4ffc-4661-b186-eec473e4b3fb, !- Saturday Schedule:Day Name
  07f88278-11cf-423e-9762-aa66966af8c8, !- Holiday Schedule:Day Name
  07f88278-11cf-423e-9762-aa66966af8c8, !- SummerDesignDay Schedule:Day Name
  07f88278-11cf-423e-9762-aa66966af8c8, !- WinterDesignDay Schedule:Day Name
  07f88278-11cf-423e-9762-aa66966af8c8, !- CustomDay1 Schedule:Day Name
  07f88278-11cf-423e-9762-aa66966af8c8; !- CustomDay2 Schedule:Day Name

Schedule:Week:Daily, HeatAvail_Uhall_0_13,
  c08be0c4-fcfa-406c-abdd-96a7b03b8551, !- Sunday Schedule:Day Name
  cb14452f-51dd-48e2-99e8-3dfb1e8afad8, !- Monday Schedule:Day Name
  505a70fc-b842-411e-897e-ccfe53d96d7b, !- Tuesday Schedule:Day Name
  4674d4ad-ae5e-4b79-a76a-2395b75afc9a, !- Wednesday Schedule:Day Name
  4f1f9660-3ca3-4c6a-a42a-adf5a542d551, !- Thursday Schedule:Day Name
  0a821289-0550-470a-96e4-e78c7fa47668, !- Friday Schedule:Day Name
  9efa68b0-563c-4c22-8c0a-f95819fc4dfa, !- Saturday Schedule:Day Name
  c08be0c4-fcfa-406c-abdd-96a7b03b8551, !- Holiday Schedule:Day Name
  c08be0c4-fcfa-406c-abdd-96a7b03b8551, !- SummerDesignDay Schedule:Day Name
  c08be0c4-fcfa-406c-abdd-96a7b03b8551, !- WinterDesignDay Schedule:Day Name
  c08be0c4-fcfa-406c-abdd-96a7b03b8551, !- CustomDay1 Schedule:Day Name
  c08be0c4-fcfa-406c-abdd-96a7b03b8551; !- CustomDay2 Schedule:Day Name

Schedule:Week:Daily, HeatAvail_Uhall_0_14,
  f9308e66-c808-4c21-b694-b1e3117985f1, !- Sunday Schedule:Day Name
  e362bb62-e392-4f98-89a4-c7616ee0da78, !- Monday Schedule:Day Name
  bdf4e634-f655-46b8-bb46-530eedc0b97c, !- Tuesday Schedule:Day Name
  6a83668f-6a61-4c04-9981-e358ef47ac49, !- Wednesday Schedule:Day Name
  3ba98dbe-32cd-4081-9a77-954be1298001, !- Thursday Schedule:Day Name
  3d6d7624-3e5b-4558-a5ed-ea13f6046ad1, !- Friday Schedule:Day Name
  61d646ef-99a8-40fd-8593-29998eb71547, !- Saturday Schedule:Day Name
  f9308e66-c808-4c21-b694-b1e3117985f1, !- Holiday Schedule:Day Name
  f9308e66-c808-4c21-b694-b1e3117985f1, !- SummerDesignDay Schedule:Day Name
  f9308e66-c808-4c21-b694-b1e3117985f1, !- WinterDesignDay Schedule:Day Name
  f9308e66-c808-4c21-b694-b1e3117985f1, !- CustomDay1 Schedule:Day Name
  f9308e66-c808-4c21-b694-b1e3117985f1; !- CustomDay2 Schedule:Day Name

Schedule:Week:Daily, HeatAvail_Uhall_0_15,
  ed082062-79aa-4376-9da4-cbc792f80ecc, !- Sunday Schedule:Day Name
  feebe028-c72b-4222-9db5-db50b9d0df7c, !- Monday Schedule:Day Name
  68b4197a-0a3c-45c0-aedb-0df11bae7eae, !- Tuesday Schedule:Day Name
  43ce78f5-0925-4cd2-8616-c9d19e1a19c7, !- Wednesday Schedule:Day Name
  5755456c-06a8-49fc-972e-33671b8ae1b7, !- Thursday Schedule:Day Name
  5200658d-c955-470e-95e0-ef04002790a9, !- Friday Schedule:Day Name
  498a6981-8755-461b-a987-a16443a03934, !- Saturday Schedule:Day Name
  ed082062-79aa-4376-9da4-cbc792f80ecc, !- Holiday Schedule:Day Name
  ed082062-79aa-4376-9da4-cbc792f80ecc, !- SummerDesignDay Schedule:Day Name
  ed082062-79aa-4376-9da4-cbc792f80ecc, !- WinterDesignDay Schedule:Day Name
  ed082062-79aa-4376-9da4-cbc792f80ecc, !- CustomDay1 Schedule:Day Name
  ed082062-79aa-4376-9da4-cbc792f80ecc; !- CustomDay2 Schedule:Day Name

Schedule:Week:Daily, HeatAvail_Uhall_0_16,
  454ad031-8e21-49a2-a97a-4076dc712759, !- Sunday Schedule:Day Name
  db00bee3-6bf5-4e51-860b-7654a3651c02, !- Monday Schedule:Day Name
  a13aa85a-000d-465c-a9a8-7c2b2f731fb1, !- Tuesday Schedule:Day Name
  b3e65846-52eb-4956-9420-03c2995b8da9, !- Wednesday Schedule:Day Name
  20378aa8-d61a-4f74-91d5-683cd33f14d5, !- Thursday Schedule:Day Name
  fad559f8-ab1f-4fb4-ae5d-f9fc2a055e9e, !- Friday Schedule:Day Name
  4a4370d5-d342-4cee-ac74-5d9edba1a746, !- Saturday Schedule:Day Name
  454ad031-8e21-49a2-a97a-4076dc712759, !- Holiday Schedule:Day Name
  454ad031-8e21-49a2-a97a-4076dc712759, !- SummerDesignDay Schedule:Day Name
  454ad031-8e21-49a2-a97a-4076dc712759, !- WinterDesignDay Schedule:Day Name
  454ad031-8e21-49a2-a97a-4076dc712759, !- CustomDay1 Schedule:Day Name
  454ad031-8e21-49a2-a97a-4076dc712759; !- CustomDay2 Schedule:Day Name

Schedule:Week:Daily, HeatAvail_Uhall_0_17,
  6592fa1c-f5c6-49ea-82db-1ad3efec4262, !- Sunday Schedule:Day Name
  3475fa83-0e1f-4ab1-b220-799a4c7799d6, !- Monday Schedule:Day Name
  4020d7ec-4854-4dc2-acbd-a5153dbbd921, !- Tuesday Schedule:Day Name
  e589f685-a84e-4818-aee8-363d6345deae, !- Wednesday Schedule:Day Name
  1c53175b-d2d7-4a58-ab36-0fb8bf22b624, !- Thursday Schedule:Day Name
  b7f6722b-7e15-44fc-a5b6-c7948cf2828b, !- Friday Schedule:Day Name
  cdbf392b-ad92-429b-8fa1-e90a48041854, !- Saturday Schedule:Day Name
  6592fa1c-f5c6-49ea-82db-1ad3efec4262, !- Holiday Schedule:Day Name
  6592fa1c-f5c6-49ea-82db-1ad3efec4262, !- SummerDesignDay Schedule:Day Name
  6592fa1c-f5c6-49ea-82db-1ad3efec4262, !- WinterDesignDay Schedule:Day Name
  6592fa1c-f5c6-49ea-82db-1ad3efec4262, !- CustomDay1 Schedule:Day Name
  6592fa1c-f5c6-49ea-82db-1ad3efec4262; !- CustomDay2 Schedule:Day Name

Schedule:Week:Daily, HeatAvail_Uhall_0_18,
  aa9000a8-7474-43d7-afaa-83856b8bd1f2, !- Sunday Schedule:Day Name
  4ec5bce3-6218-4115-b27d-d4e593f8f2d8, !- Monday Schedule:Day Name
  492b02ff-45e8-4ae6-bd06-09335d1ef1e6, !- Tuesday Schedule:Day Name
  aa9000a8-7474-43d7-afaa-83856b8bd1f2, !- Wednesday Schedule:Day Name
  b22414ec-ceea-47c7-9d2f-369ee415b721, !- Thursday Schedule:Day Name
  a24abd1d-2bfc-4427-b543-e2912398e3db, !- Friday Schedule:Day Name
  3c386093-14a7-4751-8f54-93ff7cfd9247, !- Saturday Schedule:Day Name
  aa9000a8-7474-43d7-afaa-83856b8bd1f2, !- Holiday Schedule:Day Name
  aa9000a8-7474-43d7-afaa-83856b8bd1f2, !- SummerDesignDay Schedule:Day Name
  aa9000a8-7474-43d7-afaa-83856b8bd1f2, !- WinterDesignDay Schedule:Day Name
  aa9000a8-7474-43d7-afaa-83856b8bd1f2, !- CustomDay1 Schedule:Day Name
  aa9000a8-7474-43d7-afaa-83856b8bd1f2; !- CustomDay2 Schedule:Day Name

Schedule:Week:Daily, HeatAvail_Uhall_0_19,
  47df9d88-b14f-43eb-9254-53089a199fba, !- Sunday Schedule:Day Name
  e568a799-18e5-40c9-9397-6138e3e6018b, !- Monday Schedule:Day Name
  a512e456-9579-4a72-9781-54939057d925, !- Tuesday Schedule:Day Name
  ee3fc8ae-8142-4afc-9e43-1875c9e7ea1e, !- Wednesday Schedule:Day Name
  e48a7c3a-0cbb-48f7-875c-b42f9bf48bb6, !- Thursday Schedule:Day Name
  0fb08f27-7588-4a44-9de1-21b786adba81, !- Friday Schedule:Day Name
  f1e54837-410d-46ad-9285-927ae60d0b4c, !- Saturday Schedule:Day Name
  47df9d88-b14f-43eb-9254-53089a199fba, !- Holiday Schedule:Day Name
  47df9d88-b14f-43eb-9254-53089a199fba, !- SummerDesignDay Schedule:Day Name
  47df9d88-b14f-43eb-9254-53089a199fba, !- WinterDesignDay Schedule:Day Name
  47df9d88-b14f-43eb-9254-53089a199fba, !- CustomDay1 Schedule:Day Name
  47df9d88-b14f-43eb-9254-53089a199fba; !- CustomDay2 Schedule:Day Name

Schedule:Week:Daily, HeatAvail_Uhall_0_20,
  257b40ab-5645-4009-97af-efade599dc77, !- Sunday Schedule:Day Name
  5e2766cb-6e55-4f57-8b2d-2d50a1cd2cf9, !- Monday Schedule:Day Name
  47df9d88-b14f-43eb-9254-53089a199fba, !- Tuesday Schedule:Day Name
  d7e7454e-0c62-4fb5-abbb-e8e4b7720e89, !- Wednesday Schedule:Day Name
  de3e5bea-eef4-4964-afd3-3b062cac8df1, !- Thursday Schedule:Day Name
  50dfb5bd-6346-4189-aae5-ad157768b46a, !- Friday Schedule:Day Name
  5db1a842-f249-474b-81c4-4e124656ecfc, !- Saturday Schedule:Day Name
  257b40ab-5645-4009-97af-efade599dc77, !- Holiday Schedule:Day Name
  257b40ab-5645-4009-97af-efade599dc77, !- SummerDesignDay Schedule:Day Name
  257b40ab-5645-4009-97af-efade599dc77, !- WinterDesignDay Schedule:Day Name
  257b40ab-5645-4009-97af-efade599dc77, !- CustomDay1 Schedule:Day Name
  257b40ab-5645-4009-97af-efade599dc77; !- CustomDay2 Schedule:Day Name

Schedule:Week:Daily, HeatAvail_Uhall_0_21,
  bb4a2ede-820a-4d7e-8bc0-263da99094e4, !- Sunday Schedule:Day Name
  0bcc7613-16c7-4f50-b4d0-f3000df73108, !- Monday Schedule:Day Name
  c41f3eef-3b00-4110-8635-a8c3acc68c17, !- Tuesday Schedule:Day Name
  86f06402-88b3-4b63-9d25-9e76e8101479, !- Wednesday Schedule:Day Name
  ff2f4963-8b69-46bb-a096-fda8fec9c632, !- Thursday Schedule:Day Name
  0eb42a9c-9f69-437c-8e44-a644f9d0f833, !- Friday Schedule:Day Name
  cc054fa4-927c-48b5-b4d1-0b32a42e0e8f, !- Saturday Schedule:Day Name
  bb4a2ede-820a-4d7e-8bc0-263da99094e4, !- Holiday Schedule:Day Name
  bb4a2ede-820a-4d7e-8bc0-263da99094e4, !- SummerDesignDay Schedule:Day Name
  bb4a2ede-820a-4d7e-8bc0-263da99094e4, !- WinterDesignDay Schedule:Day Name
  bb4a2ede-820a-4d7e-8bc0-263da99094e4, !- CustomDay1 Schedule:Day Name
  bb4a2ede-820a-4d7e-8bc0-263da99094e4; !- CustomDay2 Schedule:Day Name

Schedule:Week:Daily, HeatAvail_Uhall_0_22,
  4fa9f995-de47-4123-a1da-32c2a08db216, !- Sunday Schedule:Day Name
  887c1822-9f3f-442f-8bea-9f947e944539, !- Monday Schedule:Day Name
  0ca156a9-b41b-49d3-a22c-2b8f75c5e3b2, !- Tuesday Schedule:Day Name
  cdd0423b-c66a-42fd-802f-416a4eafe290, !- Wednesday Schedule:Day Name
  66b6a9bc-8655-4daf-ba28-a4bfb877e586, !- Thursday Schedule:Day Name
  4d12dda1-ec74-40b6-84e2-90b7e16cccc9, !- Friday Schedule:Day Name
  33bcaca4-d62e-4873-9205-4194c9205e9a, !- Saturday Schedule:Day Name
  4fa9f995-de47-4123-a1da-32c2a08db216, !- Holiday Schedule:Day Name
  4fa9f995-de47-4123-a1da-32c2a08db216, !- SummerDesignDay Schedule:Day Name
  4fa9f995-de47-4123-a1da-32c2a08db216, !- WinterDesignDay Schedule:Day Name
  4fa9f995-de47-4123-a1da-32c2a08db216, !- CustomDay1 Schedule:Day Name
  4fa9f995-de47-4123-a1da-32c2a08db216; !- CustomDay2 Schedule:Day Name

Schedule:Week:Daily, HeatAvail_Uhall_0_23,
  1b23769c-9912-4016-bf26-049d1da81ba1, !- Sunday Schedule:Day Name
  82cd46c8-fc09-489d-8852-c2707a102208, !- Monday Schedule:Day Name
  466d0833-84f6-4f6c-9566-8e4586e9d61c, !- Tuesday Schedule:Day Name
  104041d9-cf41-494f-8531-4ac044de259c, !- Wednesday Schedule:Day Name
  2cb8c39a-c21a-472c-afed-46cdfc975710, !- Thursday Schedule:Day Name
  8704b07b-d6a4-4b2c-8d69-87c8568015b9, !- Friday Schedule:Day Name
  ad24687e-ee7d-4634-8f33-3769a78130fb, !- Saturday Schedule:Day Name
  1b23769c-9912-4016-bf26-049d1da81ba1, !- Holiday Schedule:Day Name
  1b23769c-9912-4016-bf26-049d1da81ba1, !- SummerDesignDay Schedule:Day Name
  1b23769c-9912-4016-bf26-049d1da81ba1, !- WinterDesignDay Schedule:Day Name
  1b23769c-9912-4016-bf26-049d1da81ba1, !- CustomDay1 Schedule:Day Name
  1b23769c-9912-4016-bf26-049d1da81ba1; !- CustomDay2 Schedule:Day Name

Schedule:Week:Daily, HeatAvail_Uhall_0_24,
  326ffdde-8fd3-41f8-940d-64e04a4a2eff, !- Sunday Schedule:Day Name
  e23509dc-1e6b-4dcd-a806-1d8a15a982b1, !- Monday Schedule:Day Name
  9c8c7157-9895-4de7-a80b-528a7f400532, !- Tuesday Schedule:Day Name
  cb58139b-61e1-48d8-b714-2857315486d5, !- Wednesday Schedule:Day Name
  3d8a0fe0-3f60-4a94-9286-e59dd67f832b, !- Thursday Schedule:Day Name
  19f96bac-4eb8-444d-b63b-577d2acb7bf2, !- Friday Schedule:Day Name
  1a82f468-baec-40a9-8862-642df44536eb, !- Saturday Schedule:Day Name
  326ffdde-8fd3-41f8-940d-64e04a4a2eff, !- Holiday Schedule:Day Name
  326ffdde-8fd3-41f8-940d-64e04a4a2eff, !- SummerDesignDay Schedule:Day Name
  326ffdde-8fd3-41f8-940d-64e04a4a2eff, !- WinterDesignDay Schedule:Day Name
  326ffdde-8fd3-41f8-940d-64e04a4a2eff, !- CustomDay1 Schedule:Day Name
  326ffdde-8fd3-41f8-940d-64e04a4a2eff; !- CustomDay2 Schedule:Day Name

Schedule:Week:Daily, HeatAvail_Uhall_0_25,
  c953ed02-1326-45c0-ada6-a1da0aa19310, !- Sunday Schedule:Day Name
  6b59d7ae-dbb3-4dd7-a191-161a56a18069, !- Monday Schedule:Day Name
  41480300-d2e8-45cd-ac1f-e24d05f81de1, !- Tuesday Schedule:Day Name
  0655b9da-9a35-4af4-9b1b-e392613f76c2, !- Wednesday Schedule:Day Name
  6ec52194-3fcb-4ce8-a9b7-7dabf0a4ccd8, !- Thursday Schedule:Day Name
  cc874c5d-adb5-40c8-a2b7-ba86e56e8c24, !- Friday Schedule:Day Name
  34252c3c-99b2-45fa-9e65-818269cba713, !- Saturday Schedule:Day Name
  c953ed02-1326-45c0-ada6-a1da0aa19310, !- Holiday Schedule:Day Name
  c953ed02-1326-45c0-ada6-a1da0aa19310, !- SummerDesignDay Schedule:Day Name
  c953ed02-1326-45c0-ada6-a1da0aa19310, !- WinterDesignDay Schedule:Day Name
  c953ed02-1326-45c0-ada6-a1da0aa19310, !- CustomDay1 Schedule:Day Name
  c953ed02-1326-45c0-ada6-a1da0aa19310; !- CustomDay2 Schedule:Day Name

Schedule:Week:Daily, HeatAvail_Uhall_0_26,
  ee6a48ba-f6e8-4a4d-a342-0cf44f816c2d, !- Sunday Schedule:Day Name
  790219e2-9bcc-4f55-afc6-903160baa57f, !- Monday Schedule:Day Name
  4874cf86-287b-463b-8b64-cb114fd8627f, !- Tuesday Schedule:Day Name
  cd7dfd49-4afa-489d-b7de-dade7d03bfb6, !- Wednesday Schedule:Day Name
  ebaf5f8b-b01f-46fb-81ec-98a16710fb94, !- Thursday Schedule:Day Name
  d2d7cca7-833c-4756-9e39-c34c57ad9d6f, !- Friday Schedule:Day Name
  1358614b-db8a-4271-8781-99c0d811afea, !- Saturday Schedule:Day Name
  ee6a48ba-f6e8-4a4d-a342-0cf44f816c2d, !- Holiday Schedule:Day Name
  ee6a48ba-f6e8-4a4d-a342-0cf44f816c2d, !- SummerDesignDay Schedule:Day Name
  ee6a48ba-f6e8-4a4d-a342-0cf44f816c2d, !- WinterDesignDay Schedule:Day Name
  ee6a48ba-f6e8-4a4d-a342-0cf44f816c2d, !- CustomDay1 Schedule:Day Name
  ee6a48ba-f6e8-4a4d-a342-0cf44f816c2d; !- CustomDay2 Schedule:Day Name

Schedule:Week:Daily, HeatAvail_Uhall_0_27,
  88538c19-4e1c-4c93-968e-a84e0a2e2905, !- Sunday Schedule:Day Name
  30746125-26cb-44f9-9219-ecabeb5c5564, !- Monday Schedule:Day Name
  d1fe743a-b2dd-4d72-be1e-1c55caf8a9c1, !- Tuesday Schedule:Day Name
  79e8083e-5084-4368-801e-cd49d4bbfd0f, !- Wednesday Schedule:Day Name
  75c11437-9738-445e-9ba1-95cfc2f177c1, !- Thursday Schedule:Day Name
  ef5ef648-948e-422a-b66a-496e329441ce, !- Friday Schedule:Day Name
  75e30a45-5e2a-4b1b-a777-9d0ea8587a04, !- Saturday Schedule:Day Name
  88538c19-4e1c-4c93-968e-a84e0a2e2905, !- Holiday Schedule:Day Name
  88538c19-4e1c-4c93-968e-a84e0a2e2905, !- SummerDesignDay Schedule:Day Name
  88538c19-4e1c-4c93-968e-a84e0a2e2905, !- WinterDesignDay Schedule:Day Name
  88538c19-4e1c-4c93-968e-a84e0a2e2905, !- CustomDay1 Schedule:Day Name
  88538c19-4e1c-4c93-968e-a84e0a2e2905; !- CustomDay2 Schedule:Day Name

Schedule:Week:Daily, HeatAvail_Uhall_0_28,
  d4812dce-92e4-4fd0-843d-48cd88d0cfdb, !- Sunday Schedule:Day Name
  b9ae9906-f4e1-43b9-8f97-aaea69d61698, !- Monday Schedule:Day Name
  5ccce423-96fe-4502-9b43-87c16520157c, !- Tuesday Schedule:Day Name
  ee5123e2-f31d-4230-ae78-fba15c64a974, !- Wednesday Schedule:Day Name
  e589f685-a84e-4818-aee8-363d6345deae, !- Thursday Schedule:Day Name
  c53bd331-8f9c-419d-a3a8-7bead11b2d16, !- Friday Schedule:Day Name
  bb4a2ede-820a-4d7e-8bc0-263da99094e4, !- Saturday Schedule:Day Name
  d4812dce-92e4-4fd0-843d-48cd88d0cfdb, !- Holiday Schedule:Day Name
  d4812dce-92e4-4fd0-843d-48cd88d0cfdb, !- SummerDesignDay Schedule:Day Name
  d4812dce-92e4-4fd0-843d-48cd88d0cfdb, !- WinterDesignDay Schedule:Day Name
  d4812dce-92e4-4fd0-843d-48cd88d0cfdb, !- CustomDay1 Schedule:Day Name
  d4812dce-92e4-4fd0-843d-48cd88d0cfdb; !- CustomDay2 Schedule:Day Name

Schedule:Week:Daily, HeatAvail_Uhall_0_29,
  1559fa51-9286-4c10-a57b-1f7c5a28632d, !- Sunday Schedule:Day Name
  1b8d56f9-f2b4-464c-baf6-a44d808d749f, !- Monday Schedule:Day Name
  cc486075-51d8-404e-b9ea-f0e77f34440d, !- Tuesday Schedule:Day Name
  e3c926c1-ab64-47a5-b6c1-cde8f6a3eff9, !- Wednesday Schedule:Day Name
  e589f685-a84e-4818-aee8-363d6345deae, !- Thursday Schedule:Day Name
  e589f685-a84e-4818-aee8-363d6345deae, !- Friday Schedule:Day Name
  83cfeb36-5ad1-4462-a527-89aeb552d20d, !- Saturday Schedule:Day Name
  1559fa51-9286-4c10-a57b-1f7c5a28632d, !- Holiday Schedule:Day Name
  1559fa51-9286-4c10-a57b-1f7c5a28632d, !- SummerDesignDay Schedule:Day Name
  1559fa51-9286-4c10-a57b-1f7c5a28632d, !- WinterDesignDay Schedule:Day Name
  1559fa51-9286-4c10-a57b-1f7c5a28632d, !- CustomDay1 Schedule:Day Name
  1559fa51-9286-4c10-a57b-1f7c5a28632d; !- CustomDay2 Schedule:Day Name

Schedule:Week:Daily, HeatAvail_Uhall_0_30,
  20db4f2f-f3b0-41af-a0df-482547954cae, !- Sunday Schedule:Day Name
  1d82ed7c-05c0-4b74-ae5d-eac78ce218c4, !- Monday Schedule:Day Name
  c4b0594f-9bde-40f1-be48-02ebd69c7348, !- Tuesday Schedule:Day Name
  b0ad4eb1-137e-417d-afb5-233ba4f6d5e7, !- Wednesday Schedule:Day Name
  a361a9e9-5ea1-4cc8-858e-a30e088409c0, !- Thursday Schedule:Day Name
  6dc5f9fe-6689-4feb-bc3f-969f1dab456c, !- Friday Schedule:Day Name
  ae740c22-83ad-4d72-822a-72d738c84b4c, !- Saturday Schedule:Day Name
  20db4f2f-f3b0-41af-a0df-482547954cae, !- Holiday Schedule:Day Name
  20db4f2f-f3b0-41af-a0df-482547954cae, !- SummerDesignDay Schedule:Day Name
  20db4f2f-f3b0-41af-a0df-482547954cae, !- WinterDesignDay Schedule:Day Name
  20db4f2f-f3b0-41af-a0df-482547954cae, !- CustomDay1 Schedule:Day Name
  20db4f2f-f3b0-41af-a0df-482547954cae; !- CustomDay2 Schedule:Day Name

Schedule:Week:Daily, HeatAvail_Uhall_0_31,
  2fb2d763-5f3b-4b91-a97d-dab8fc16594a, !- Sunday Schedule:Day Name
  d7e7454e-0c62-4fb5-abbb-e8e4b7720e89, !- Monday Schedule:Day Name
  cc486075-51d8-404e-b9ea-f0e77f34440d, !- Tuesday Schedule:Day Name
  0c2f5271-cff0-4a69-a1f3-5080dd4e2f9a, !- Wednesday Schedule:Day Name
  8a9a608f-8df8-49a6-b34f-d6e6eb8d9ef6, !- Thursday Schedule:Day Name
  fe0c08fd-7af7-435e-b2c1-ca638bd41060, !- Friday Schedule:Day Name
  227444cc-a8b7-47ed-ba15-db845e38a4f7, !- Saturday Schedule:Day Name
  2fb2d763-5f3b-4b91-a97d-dab8fc16594a, !- Holiday Schedule:Day Name
  2fb2d763-5f3b-4b91-a97d-dab8fc16594a, !- SummerDesignDay Schedule:Day Name
  2fb2d763-5f3b-4b91-a97d-dab8fc16594a, !- WinterDesignDay Schedule:Day Name
  2fb2d763-5f3b-4b91-a97d-dab8fc16594a, !- CustomDay1 Schedule:Day Name
  2fb2d763-5f3b-4b91-a97d-dab8fc16594a; !- CustomDay2 Schedule:Day Name

Schedule:Week:Daily, HeatAvail_Uhall_0_32,
  60699407-8e47-45ec-8a04-47a0ae7f4457, !- Sunday Schedule:Day Name
  3f977091-cb24-4c87-a0b1-3a36739f0a4a, !- Monday Schedule:Day Name
  c6a5d389-0457-4692-96d1-bd8dbc1a82d5, !- Tuesday Schedule:Day Name
  1c58df69-9b14-49e4-90e6-423c74abc6ae, !- Wednesday Schedule:Day Name
  a8ad3596-634a-48eb-bad2-500617258e52, !- Thursday Schedule:Day Name
  65845a05-8a8c-42bf-95d9-b6d2e368aa02, !- Friday Schedule:Day Name
  6a86ab29-eecf-41bd-8819-4c06628de85e, !- Saturday Schedule:Day Name
  60699407-8e47-45ec-8a04-47a0ae7f4457, !- Holiday Schedule:Day Name
  60699407-8e47-45ec-8a04-47a0ae7f4457, !- SummerDesignDay Schedule:Day Name
  60699407-8e47-45ec-8a04-47a0ae7f4457, !- WinterDesignDay Schedule:Day Name
  60699407-8e47-45ec-8a04-47a0ae7f4457, !- CustomDay1 Schedule:Day Name
  60699407-8e47-45ec-8a04-47a0ae7f4457; !- CustomDay2 Schedule:Day Name

Schedule:Week:Daily, HeatAvail_Uhall_0_33,
  3a49a71b-682b-49d9-b452-f680439e5dcd, !- Sunday Schedule:Day Name
  452d2c8e-1c76-4fc6-a22d-1cf568360426, !- Monday Schedule:Day Name
  6c2d03cb-d23c-459b-b72a-ef676cd13fe8, !- Tuesday Schedule:Day Name
  f1d434eb-759d-49dc-a6db-a1d232a3d517, !- Wednesday Schedule:Day Name
  e31e8667-a67c-4b4b-a876-83b78cb6bc00, !- Thursday Schedule:Day Name
  c41f3eef-3b00-4110-8635-a8c3acc68c17, !- Friday Schedule:Day Name
  06767887-9e3e-48a4-9b25-a64a89916fff, !- Saturday Schedule:Day Name
  3a49a71b-682b-49d9-b452-f680439e5dcd, !- Holiday Schedule:Day Name
  3a49a71b-682b-49d9-b452-f680439e5dcd, !- SummerDesignDay Schedule:Day Name
  3a49a71b-682b-49d9-b452-f680439e5dcd, !- WinterDesignDay Schedule:Day Name
  3a49a71b-682b-49d9-b452-f680439e5dcd, !- CustomDay1 Schedule:Day Name
  3a49a71b-682b-49d9-b452-f680439e5dcd; !- CustomDay2 Schedule:Day Name

Schedule:Week:Daily, HeatAvail_Uhall_0_34,
  85f6f0f1-c189-452c-a53e-85cf6df4ea3a, !- Sunday Schedule:Day Name
  3e483427-98b3-411f-ac16-c0e1e9afc8e8, !- Monday Schedule:Day Name
  9e9e7059-73f8-4409-8d30-6832d868240e, !- Tuesday Schedule:Day Name
  9c5a30d7-7394-47f4-a253-b72e66a3f584, !- Wednesday Schedule:Day Name
  a78ecda9-0306-484a-8aea-17141c411591, !- Thursday Schedule:Day Name
  7ea33b74-88dc-449d-9851-80bf0418e2d4, !- Friday Schedule:Day Name
  625a3683-c8b4-4b30-aea2-6b91c24a47e7, !- Saturday Schedule:Day Name
  85f6f0f1-c189-452c-a53e-85cf6df4ea3a, !- Holiday Schedule:Day Name
  85f6f0f1-c189-452c-a53e-85cf6df4ea3a, !- SummerDesignDay Schedule:Day Name
  85f6f0f1-c189-452c-a53e-85cf6df4ea3a, !- WinterDesignDay Schedule:Day Name
  85f6f0f1-c189-452c-a53e-85cf6df4ea3a, !- CustomDay1 Schedule:Day Name
  85f6f0f1-c189-452c-a53e-85cf6df4ea3a; !- CustomDay2 Schedule:Day Name

Schedule:Week:Daily, HeatAvail_Uhall_0_35,
  2bad0aaa-cb40-4398-a2d7-199ee08973b5, !- Sunday Schedule:Day Name
  9e489189-e3b2-47f3-a015-2c17a11543ca, !- Monday Schedule:Day Name
  db07ce6c-1d0b-40f1-9724-6f7446501cfa, !- Tuesday Schedule:Day Name
  06c740f1-3dce-4cfa-a1ef-f8ef9041f529, !- Wednesday Schedule:Day Name
  43a85af4-5db7-43c8-b0b0-0cfb932f600b, !- Thursday Schedule:Day Name
  2038bb20-7ec9-4fac-9f7d-42093d49aa63, !- Friday Schedule:Day Name
  e8e5f328-0ffc-40e8-bad2-47fa7c69a7a0, !- Saturday Schedule:Day Name
  2bad0aaa-cb40-4398-a2d7-199ee08973b5, !- Holiday Schedule:Day Name
  2bad0aaa-cb40-4398-a2d7-199ee08973b5, !- SummerDesignDay Schedule:Day Name
  2bad0aaa-cb40-4398-a2d7-199ee08973b5, !- WinterDesignDay Schedule:Day Name
  2bad0aaa-cb40-4398-a2d7-199ee08973b5, !- CustomDay1 Schedule:Day Name
  2bad0aaa-cb40-4398-a2d7-199ee08973b5; !- CustomDay2 Schedule:Day Name

Schedule:Week:Daily, HeatAvail_Uhall_0_36,
  ab9d70c9-feed-43cc-a1ca-82c74ac5aac6, !- Sunday Schedule:Day Name
  257b40ab-5645-4009-97af-efade599dc77, !- Monday Schedule:Day Name
  c313d9a8-e4d4-46cf-8e09-92cba6c11744, !- Tuesday Schedule:Day Name
  1e1fcf91-df0a-4968-9e03-a562fc365c59, !- Wednesday Schedule:Day Name
  c76d2652-0fbc-4c57-97b5-168db8e2e222, !- Thursday Schedule:Day Name
  bef53187-a794-4334-a5d4-e8a3bd96adbc, !- Friday Schedule:Day Name
  41480300-d2e8-45cd-ac1f-e24d05f81de1, !- Saturday Schedule:Day Name
  ab9d70c9-feed-43cc-a1ca-82c74ac5aac6, !- Holiday Schedule:Day Name
  ab9d70c9-feed-43cc-a1ca-82c74ac5aac6, !- SummerDesignDay Schedule:Day Name
  ab9d70c9-feed-43cc-a1ca-82c74ac5aac6, !- WinterDesignDay Schedule:Day Name
  ab9d70c9-feed-43cc-a1ca-82c74ac5aac6, !- CustomDay1 Schedule:Day Name
  ab9d70c9-feed-43cc-a1ca-82c74ac5aac6; !- CustomDay2 Schedule:Day Name

Schedule:Week:Daily, HeatAvail_Uhall_0_37,
  e589f685-a84e-4818-aee8-363d6345deae, !- Sunday Schedule:Day Name
  bfcd59e4-541e-416e-a329-7b4c50d4a226, !- Monday Schedule:Day Name
  54bdd4b4-fd4a-4fdf-8d53-a77e674ee045, !- Tuesday Schedule:Day Name
  853f86ae-d952-4bb6-8e8f-37ad2bf2c0d8, !- Wednesday Schedule:Day Name
  866934fb-4abc-4012-b7ae-2652c55b91b5, !- Thursday Schedule:Day Name
  003c1343-9910-4965-afdd-74b0b1b28fbc, !- Friday Schedule:Day Name
  a6358ca5-8168-450f-9a34-7eae4738b643, !- Saturday Schedule:Day Name
  e589f685-a84e-4818-aee8-363d6345deae, !- Holiday Schedule:Day Name
  e589f685-a84e-4818-aee8-363d6345deae, !- SummerDesignDay Schedule:Day Name
  e589f685-a84e-4818-aee8-363d6345deae, !- WinterDesignDay Schedule:Day Name
  e589f685-a84e-4818-aee8-363d6345deae, !- CustomDay1 Schedule:Day Name
  e589f685-a84e-4818-aee8-363d6345deae; !- CustomDay2 Schedule:Day Name

Schedule:Week:Daily, HeatAvail_Uhall_0_38,
  846b58e2-839b-41f2-9d04-9d4daf408af0, !- Sunday Schedule:Day Name
  07174647-541f-4974-a7f1-0633f2ed7e0b, !- Monday Schedule:Day Name
  ab9d70c9-feed-43cc-a1ca-82c74ac5aac6, !- Tuesday Schedule:Day Name
  fdad6677-eeb7-48c9-a6c1-936a7f41ad86, !- Wednesday Schedule:Day Name
  13c64a9b-017a-4c70-a607-ce5a9e7dd3fd, !- Thursday Schedule:Day Name
  73687f7e-3e00-4d5f-a7a0-0f2641d9cb89, !- Friday Schedule:Day Name
  22ff2306-5a50-48e3-85ab-f2fed33de9ad, !- Saturday Schedule:Day Name
  846b58e2-839b-41f2-9d04-9d4daf408af0, !- Holiday Schedule:Day Name
  846b58e2-839b-41f2-9d04-9d4daf408af0, !- SummerDesignDay Schedule:Day Name
  846b58e2-839b-41f2-9d04-9d4daf408af0, !- WinterDesignDay Schedule:Day Name
  846b58e2-839b-41f2-9d04-9d4daf408af0, !- CustomDay1 Schedule:Day Name
  846b58e2-839b-41f2-9d04-9d4daf408af0; !- CustomDay2 Schedule:Day Name

Schedule:Week:Daily, HeatAvail_Uhall_0_39,
  fa407cf4-4832-4826-8720-46d485bcae77, !- Sunday Schedule:Day Name
  156e0c7b-1eaf-4df0-9f48-5414e7d6628d, !- Monday Schedule:Day Name
  7b8f0ee8-4ade-426c-8fbe-d5206c386751, !- Tuesday Schedule:Day Name
  a7e8581c-efec-4a9a-9356-f6e272b09e3f, !- Wednesday Schedule:Day Name
  94eb93d3-130e-461e-8785-8ffef0f72ca0, !- Thursday Schedule:Day Name
  b3390f4d-d3f4-4eb7-a936-c38300da486d, !- Friday Schedule:Day Name
  e589f685-a84e-4818-aee8-363d6345deae, !- Saturday Schedule:Day Name
  fa407cf4-4832-4826-8720-46d485bcae77, !- Holiday Schedule:Day Name
  fa407cf4-4832-4826-8720-46d485bcae77, !- SummerDesignDay Schedule:Day Name
  fa407cf4-4832-4826-8720-46d485bcae77, !- WinterDesignDay Schedule:Day Name
  fa407cf4-4832-4826-8720-46d485bcae77, !- CustomDay1 Schedule:Day Name
  fa407cf4-4832-4826-8720-46d485bcae77; !- CustomDay2 Schedule:Day Name

Schedule:Week:Daily, HeatAvail_Uhall_0_40,
  e3c926c1-ab64-47a5-b6c1-cde8f6a3eff9, !- Sunday Schedule:Day Name
  876e857f-4959-494d-b16b-601beafb1ec9, !- Monday Schedule:Day Name
  b657c9e7-afca-4ae8-a33d-938b3d86fdab, !- Tuesday Schedule:Day Name
  99ade35d-b1a4-4347-aa3a-364cd4bf2245, !- Wednesday Schedule:Day Name
  396e36f4-99d6-439f-9333-bd7a06f5599f, !- Thursday Schedule:Day Name
  8a300b51-7f5b-4121-af67-3004d40a0ba0, !- Friday Schedule:Day Name
  b5f8ef1c-e175-4f04-ad3b-50d1e2fd0c38, !- Saturday Schedule:Day Name
  e3c926c1-ab64-47a5-b6c1-cde8f6a3eff9, !- Holiday Schedule:Day Name
  e3c926c1-ab64-47a5-b6c1-cde8f6a3eff9, !- SummerDesignDay Schedule:Day Name
  e3c926c1-ab64-47a5-b6c1-cde8f6a3eff9, !- WinterDesignDay Schedule:Day Name
  e3c926c1-ab64-47a5-b6c1-cde8f6a3eff9, !- CustomDay1 Schedule:Day Name
  e3c926c1-ab64-47a5-b6c1-cde8f6a3eff9; !- CustomDay2 Schedule:Day Name

Schedule:Week:Daily, HeatAvail_Uhall_0_41,
  ea110a93-a8a7-48fb-9a26-a39735e4c26a, !- Sunday Schedule:Day Name
  699edc9a-12e3-47d9-8ab7-0dbe984ce1c0, !- Monday Schedule:Day Name
  aa8c40c5-6c1d-46fd-86f9-c95dc07664db, !- Tuesday Schedule:Day Name
  7f96201e-5005-44d2-910d-170d13ff5579, !- Wednesday Schedule:Day Name
  bc255aef-9901-45d0-8e55-61953f3fa468, !- Thursday Schedule:Day Name
  7231988e-57d6-4459-b775-c103dc271099, !- Friday Schedule:Day Name
  f4f25312-34b6-42cd-8456-3a78661d2827, !- Saturday Schedule:Day Name
  ea110a93-a8a7-48fb-9a26-a39735e4c26a, !- Holiday Schedule:Day Name
  ea110a93-a8a7-48fb-9a26-a39735e4c26a, !- SummerDesignDay Schedule:Day Name
  ea110a93-a8a7-48fb-9a26-a39735e4c26a, !- WinterDesignDay Schedule:Day Name
  ea110a93-a8a7-48fb-9a26-a39735e4c26a, !- CustomDay1 Schedule:Day Name
  ea110a93-a8a7-48fb-9a26-a39735e4c26a; !- CustomDay2 Schedule:Day Name

Schedule:Week:Daily, HeatAvail_Uhall_0_42,
  aa974862-c187-42e8-aa48-ace689d6e0a7, !- Sunday Schedule:Day Name
  8bb454cf-9091-48a1-8fa2-bb9467c1582d, !- Monday Schedule:Day Name
  fb6d8b10-64c6-4768-8def-1ae53cd30cf7, !- Tuesday Schedule:Day Name
  3e10dd48-ad7e-42ca-beae-7cfd3233a09a, !- Wednesday Schedule:Day Name
  2ad3789e-b596-4a6c-b76c-c62c5585e1f8, !- Thursday Schedule:Day Name
  9b26ad11-a201-43fa-a19f-e1e0bf61d2db, !- Friday Schedule:Day Name
  334d533c-fd0b-4512-b939-61f84e1eb9e3, !- Saturday Schedule:Day Name
  aa974862-c187-42e8-aa48-ace689d6e0a7, !- Holiday Schedule:Day Name
  aa974862-c187-42e8-aa48-ace689d6e0a7, !- SummerDesignDay Schedule:Day Name
  aa974862-c187-42e8-aa48-ace689d6e0a7, !- WinterDesignDay Schedule:Day Name
  aa974862-c187-42e8-aa48-ace689d6e0a7, !- CustomDay1 Schedule:Day Name
  aa974862-c187-42e8-aa48-ace689d6e0a7; !- CustomDay2 Schedule:Day Name

Schedule:Week:Daily, HeatAvail_Uhall_0_43,
  f11f1636-b269-4f87-aff8-27aa935bf4b3, !- Sunday Schedule:Day Name
  136ad646-8ec3-4805-849a-e9ef29558a26, !- Monday Schedule:Day Name
  6a7f27cd-f468-4a68-8100-83bf9b7b8bf5, !- Tuesday Schedule:Day Name
  f8fbcafc-a4ec-44cb-9543-f6413bac8f72, !- Wednesday Schedule:Day Name
  57b254bd-a5f7-4dba-b707-0136e4121f7f, !- Thursday Schedule:Day Name
  e6d8b54d-22ea-47ef-b462-662480a5f86f, !- Friday Schedule:Day Name
  3bb82a51-4f6c-4a6f-97fe-e665a4aa5010, !- Saturday Schedule:Day Name
  f11f1636-b269-4f87-aff8-27aa935bf4b3, !- Holiday Schedule:Day Name
  f11f1636-b269-4f87-aff8-27aa935bf4b3, !- SummerDesignDay Schedule:Day Name
  f11f1636-b269-4f87-aff8-27aa935bf4b3, !- WinterDesignDay Schedule:Day Name
  f11f1636-b269-4f87-aff8-27aa935bf4b3, !- CustomDay1 Schedule:Day Name
  f11f1636-b269-4f87-aff8-27aa935bf4b3; !- CustomDay2 Schedule:Day Name

Schedule:Week:Daily, HeatAvail_Uhall_0_44,
  8bff091a-fcc9-41ec-8b7f-395e2fa86ead, !- Sunday Schedule:Day Name
  25042a8d-6a95-4ecf-8721-55ece700b690, !- Monday Schedule:Day Name
  c0a39ba0-22a6-48f2-9603-f38976585fb6, !- Tuesday Schedule:Day Name
  4d63b46f-a2e4-4106-9002-6263c44a7f26, !- Wednesday Schedule:Day Name
  62624d2a-b093-448d-818b-a2770e4de26c, !- Thursday Schedule:Day Name
  ae34816d-fa09-40f2-aeef-f178f9d61306, !- Friday Schedule:Day Name
  303a5f83-3299-448e-8582-a0a791d3c55a, !- Saturday Schedule:Day Name
  8bff091a-fcc9-41ec-8b7f-395e2fa86ead, !- Holiday Schedule:Day Name
  8bff091a-fcc9-41ec-8b7f-395e2fa86ead, !- SummerDesignDay Schedule:Day Name
  8bff091a-fcc9-41ec-8b7f-395e2fa86ead, !- WinterDesignDay Schedule:Day Name
  8bff091a-fcc9-41ec-8b7f-395e2fa86ead, !- CustomDay1 Schedule:Day Name
  8bff091a-fcc9-41ec-8b7f-395e2fa86ead; !- CustomDay2 Schedule:Day Name

Schedule:Week:Daily, HeatAvail_Uhall_0_45,
  170add1a-4e6b-4bc4-a46f-dc19ef3f801b, !- Sunday Schedule:Day Name
  1d82ed7c-05c0-4b74-ae5d-eac78ce218c4, !- Monday Schedule:Day Name
  0c8cbfae-1c65-4d1d-aca7-c0e751a450cf, !- Tuesday Schedule:Day Name
  7746b621-f62f-439d-ae02-4ff435249f25, !- Wednesday Schedule:Day Name
  7b8f0ee8-4ade-426c-8fbe-d5206c386751, !- Thursday Schedule:Day Name
  31543a46-a7a2-4402-9643-570e702bb547, !- Friday Schedule:Day Name
  170add1a-4e6b-4bc4-a46f-dc19ef3f801b, !- Saturday Schedule:Day Name
  170add1a-4e6b-4bc4-a46f-dc19ef3f801b, !- Holiday Schedule:Day Name
  170add1a-4e6b-4bc4-a46f-dc19ef3f801b, !- SummerDesignDay Schedule:Day Name
  170add1a-4e6b-4bc4-a46f-dc19ef3f801b, !- WinterDesignDay Schedule:Day Name
  170add1a-4e6b-4bc4-a46f-dc19ef3f801b, !- CustomDay1 Schedule:Day Name
  170add1a-4e6b-4bc4-a46f-dc19ef3f801b; !- CustomDay2 Schedule:Day Name

Schedule:Week:Daily, HeatAvail_Uhall_0_46,
  aaf1e1fa-7e53-470f-801d-3128046d0bec, !- Sunday Schedule:Day Name
  8bb454cf-9091-48a1-8fa2-bb9467c1582d, !- Monday Schedule:Day Name
  be8e28cc-f7c6-43ef-8a21-5cf6166ca115, !- Tuesday Schedule:Day Name
  b73ce967-46ce-4edc-85e8-febf9f99aa86, !- Wednesday Schedule:Day Name
  b610989e-2758-475f-9f85-ccb0c86ddb02, !- Thursday Schedule:Day Name
  82d0f90d-c65d-44a7-9e74-8d477d8cee77, !- Friday Schedule:Day Name
  89a3181f-b557-4ab6-a07d-6371fc984d98, !- Saturday Schedule:Day Name
  aaf1e1fa-7e53-470f-801d-3128046d0bec, !- Holiday Schedule:Day Name
  aaf1e1fa-7e53-470f-801d-3128046d0bec, !- SummerDesignDay Schedule:Day Name
  aaf1e1fa-7e53-470f-801d-3128046d0bec, !- WinterDesignDay Schedule:Day Name
  aaf1e1fa-7e53-470f-801d-3128046d0bec, !- CustomDay1 Schedule:Day Name
  aaf1e1fa-7e53-470f-801d-3128046d0bec; !- CustomDay2 Schedule:Day Name

Schedule:Week:Daily, HeatAvail_Uhall_0_47,
  38f146cc-59da-4eaa-81e2-e8e668f91803, !- Sunday Schedule:Day Name
  5b1c1975-4151-48e6-9ac6-8ba9c77f3377, !- Monday Schedule:Day Name
  0c48338b-0f44-49a6-a413-403ef1229694, !- Tuesday Schedule:Day Name
  b21f65cc-6db9-41ce-b9b3-661f24a5cef7, !- Wednesday Schedule:Day Name
  d622cf19-3c4d-4d92-be32-7cfa2f02850c, !- Thursday Schedule:Day Name
  a71769e2-206c-44b1-9f6b-b75f0fdc65b7, !- Friday Schedule:Day Name
  8b11b80b-1080-4a83-b137-275c54478cba, !- Saturday Schedule:Day Name
  38f146cc-59da-4eaa-81e2-e8e668f91803, !- Holiday Schedule:Day Name
  38f146cc-59da-4eaa-81e2-e8e668f91803, !- SummerDesignDay Schedule:Day Name
  38f146cc-59da-4eaa-81e2-e8e668f91803, !- WinterDesignDay Schedule:Day Name
  38f146cc-59da-4eaa-81e2-e8e668f91803, !- CustomDay1 Schedule:Day Name
  38f146cc-59da-4eaa-81e2-e8e668f91803; !- CustomDay2 Schedule:Day Name

Schedule:Week:Daily, HeatAvail_Uhall_0_48,
  56469a80-e013-4a92-9f71-e630c50a624b, !- Sunday Schedule:Day Name
  c13edd3c-6abc-4d13-99b2-f0cd3f8531af, !- Monday Schedule:Day Name
  fe588b7b-e3bb-4130-86a5-2bafded251f4, !- Tuesday Schedule:Day Name
  48f8865f-526d-44bb-9988-9b8ac543002f, !- Wednesday Schedule:Day Name
  9543784f-d80a-40e1-b67c-fa366f8e773e, !- Thursday Schedule:Day Name
  8189c87b-fb73-492f-ba1e-3e619645b730, !- Friday Schedule:Day Name
  b96a0f96-60c8-4087-b917-cecf00efb78f, !- Saturday Schedule:Day Name
  56469a80-e013-4a92-9f71-e630c50a624b, !- Holiday Schedule:Day Name
  56469a80-e013-4a92-9f71-e630c50a624b, !- SummerDesignDay Schedule:Day Name
  56469a80-e013-4a92-9f71-e630c50a624b, !- WinterDesignDay Schedule:Day Name
  56469a80-e013-4a92-9f71-e630c50a624b, !- CustomDay1 Schedule:Day Name
  56469a80-e013-4a92-9f71-e630c50a624b; !- CustomDay2 Schedule:Day Name

Schedule:Week:Daily, HeatAvail_Uhall_0_49,
  4250ed1e-f6c4-492f-9a93-31eaa60eeaf2, !- Sunday Schedule:Day Name
  e512527d-2b8d-4b7c-a07a-5fc6b4983035, !- Monday Schedule:Day Name
  0812a75d-8cc2-4e2e-a2a1-db448d9b0435, !- Tuesday Schedule:Day Name
  adbb301d-1f44-4516-ac46-d7cf895459b6, !- Wednesday Schedule:Day Name
  9c8e3532-d700-49d4-9ff1-133c041be157, !- Thursday Schedule:Day Name
  6d1f6ef8-28d9-4efa-836f-79dbe2c9a36d, !- Friday Schedule:Day Name
  96fcb3aa-37ba-4f07-9de2-6795088a92d4, !- Saturday Schedule:Day Name
  4250ed1e-f6c4-492f-9a93-31eaa60eeaf2, !- Holiday Schedule:Day Name
  4250ed1e-f6c4-492f-9a93-31eaa60eeaf2, !- SummerDesignDay Schedule:Day Name
  4250ed1e-f6c4-492f-9a93-31eaa60eeaf2, !- WinterDesignDay Schedule:Day Name
  4250ed1e-f6c4-492f-9a93-31eaa60eeaf2, !- CustomDay1 Schedule:Day Name
  4250ed1e-f6c4-492f-9a93-31eaa60eeaf2; !- CustomDay2 Schedule:Day Name

Schedule:Week:Daily, HeatAvail_Uhall_0_50,
  7904f1b2-d521-44ed-bbdf-6285749ec256, !- Sunday Schedule:Day Name
  b657c9e7-afca-4ae8-a33d-938b3d86fdab, !- Monday Schedule:Day Name
  97285481-3ed5-409f-8473-52abdef88083, !- Tuesday Schedule:Day Name
  2258e41e-dced-4f4e-8afe-0ba8e83b7f2a, !- Wednesday Schedule:Day Name
  9af88808-9c1e-49e8-9cd4-60bb524454be, !- Thursday Schedule:Day Name
  b6af22a2-ebc6-49fc-93c6-3f74d9213b32, !- Friday Schedule:Day Name
  853783de-594a-4ca5-839f-67888f320912, !- Saturday Schedule:Day Name
  7904f1b2-d521-44ed-bbdf-6285749ec256, !- Holiday Schedule:Day Name
  7904f1b2-d521-44ed-bbdf-6285749ec256, !- SummerDesignDay Schedule:Day Name
  7904f1b2-d521-44ed-bbdf-6285749ec256, !- WinterDesignDay Schedule:Day Name
  7904f1b2-d521-44ed-bbdf-6285749ec256, !- CustomDay1 Schedule:Day Name
  7904f1b2-d521-44ed-bbdf-6285749ec256; !- CustomDay2 Schedule:Day Name

Schedule:Week:Daily, HeatAvail_Uhall_0_51,
  86c57143-ffed-4de5-b267-bbec8844d14e, !- Sunday Schedule:Day Name
  8db33876-b01f-445c-bbda-69fa527fc7fc, !- Monday Schedule:Day Name
  99cdd683-29cf-42e6-a1ab-6bc93bd9379a, !- Tuesday Schedule:Day Name
  f853c6d1-c679-45db-a18b-ef365238a26a, !- Wednesday Schedule:Day Name
  e4086513-5e96-4223-bd2c-a2ea429b8da7, !- Thursday Schedule:Day Name
  b149aa5f-44e4-4c6e-bea9-ae0ec9cfe6cc, !- Friday Schedule:Day Name
  fe0c08fd-7af7-435e-b2c1-ca638bd41060, !- Saturday Schedule:Day Name
  86c57143-ffed-4de5-b267-bbec8844d14e, !- Holiday Schedule:Day Name
  86c57143-ffed-4de5-b267-bbec8844d14e, !- SummerDesignDay Schedule:Day Name
  86c57143-ffed-4de5-b267-bbec8844d14e, !- WinterDesignDay Schedule:Day Name
  86c57143-ffed-4de5-b267-bbec8844d14e, !- CustomDay1 Schedule:Day Name
  86c57143-ffed-4de5-b267-bbec8844d14e; !- CustomDay2 Schedule:Day Name

Schedule:Week:Daily, HeatAvail_Uhall_0_52,
  fd4a921d-8031-40be-b9cd-2fede9e5bcd7, !- Sunday Schedule:Day Name
  fd4a921d-8031-40be-b9cd-2fede9e5bcd7, !- Monday Schedule:Day Name
  fd4a921d-8031-40be-b9cd-2fede9e5bcd7, !- Tuesday Schedule:Day Name
  fd4a921d-8031-40be-b9cd-2fede9e5bcd7, !- Wednesday Schedule:Day Name
  fd4a921d-8031-40be-b9cd-2fede9e5bcd7, !- Thursday Schedule:Day Name
  fd4a921d-8031-40be-b9cd-2fede9e5bcd7, !- Friday Schedule:Day Name
  fd4a921d-8031-40be-b9cd-2fede9e5bcd7, !- Saturday Schedule:Day Name
  fd4a921d-8031-40be-b9cd-2fede9e5bcd7, !- Holiday Schedule:Day Name
  fd4a921d-8031-40be-b9cd-2fede9e5bcd7, !- SummerDesignDay Schedule:Day Name
  fd4a921d-8031-40be-b9cd-2fede9e5bcd7, !- WinterDesignDay Schedule:Day Name
  fd4a921d-8031-40be-b9cd-2fede9e5bcd7, !- CustomDay1 Schedule:Day Name
  fd4a921d-8031-40be-b9cd-2fede9e5bcd7; !- CustomDay2 Schedule:Day Name


Schedule:Year,CoolAvail_Uhall_0,
Fraction,
CoolAvail_Uhall_0_0,1,1,1,7, 
CoolAvail_Uhall_0_1,1,8,1,14, 
CoolAvail_Uhall_0_2,1,15,1,21, 
CoolAvail_Uhall_0_3,1,22,1,28, 
CoolAvail_Uhall_0_4,1,29,2,4, 
CoolAvail_Uhall_0_5,2,5,2,11, 
CoolAvail_Uhall_0_6,2,12,2,18, 
CoolAvail_Uhall_0_7,2,19,2,25, 
CoolAvail_Uhall_0_8,2,26,3,4, 
CoolAvail_Uhall_0_9,3,5,3,11, 
CoolAvail_Uhall_0_10,3,12,3,18, 
CoolAvail_Uhall_0_11,3,19,3,25, 
CoolAvail_Uhall_0_12,3,26,4,1, 
CoolAvail_Uhall_0_13,4,2,4,8, 
CoolAvail_Uhall_0_14,4,9,4,15, 
CoolAvail_Uhall_0_15,4,16,4,22, 
CoolAvail_Uhall_0_16,4,23,4,29, 
CoolAvail_Uhall_0_17,4,30,5,6, 
CoolAvail_Uhall_0_18,5,7,5,13, 
CoolAvail_Uhall_0_19,5,14,5,20, 
CoolAvail_Uhall_0_20,5,21,5,27, 
CoolAvail_Uhall_0_21,5,28,6,3, 
CoolAvail_Uhall_0_22,6,4,6,10, 
CoolAvail_Uhall_0_23,6,11,6,17, 
CoolAvail_Uhall_0_24,6,18,6,24, 
CoolAvail_Uhall_0_25,6,25,7,1, 
CoolAvail_Uhall_0_26,7,2,7,8, 
CoolAvail_Uhall_0_27,7,9,7,15, 
CoolAvail_Uhall_0_28,7,16,7,22, 
CoolAvail_Uhall_0_29,7,23,7,29, 
CoolAvail_Uhall_0_30,7,30,8,5, 
CoolAvail_Uhall_0_31,8,6,8,12, 
CoolAvail_Uhall_0_32,8,13,8,19, 
CoolAvail_Uhall_0_33,8,20,8,26, 
CoolAvail_Uhall_0_34,8,27,9,2, 
CoolAvail_Uhall_0_35,9,3,9,9, 
CoolAvail_Uhall_0_36,9,10,9,16, 
CoolAvail_Uhall_0_37,9,17,9,23, 
CoolAvail_Uhall_0_38,9,24,9,30, 
CoolAvail_Uhall_0_39,10,1,10,7, 
CoolAvail_Uhall_0_40,10,8,10,14, 
CoolAvail_Uhall_0_41,10,15,10,21, 
CoolAvail_Uhall_0_42,10,22,10,28, 
CoolAvail_Uhall_0_43,10,29,11,4, 
CoolAvail_Uhall_0_44,11,5,11,11, 
CoolAvail_Uhall_0_45,11,12,11,18, 
CoolAvail_Uhall_0_46,11,19,11,25, 
CoolAvail_Uhall_0_47,11,26,12,2, 
CoolAvail_Uhall_0_48,12,3,12,9, 
CoolAvail_Uhall_0_49,12,10,12,16, 
CoolAvail_Uhall_0_50,12,17,12,23, 
CoolAvail_Uhall_0_51,12,24,12,30, 
CoolAvail_Uhall_0_52,12,31,12,31;

Schedule:Week:Daily, CoolAvail_Uhall_0_0,
  41e3706f-bfd9-475a-a1c9-97befab7e728, !- Sunday Schedule:Day Name
  003c1343-9910-4965-afdd-74b0b1b28fbc, !- Monday Schedule:Day Name
  592fde84-3739-4fcd-9dbb-e82d49b38008, !- Tuesday Schedule:Day Name
  c7d6d40d-0525-452e-b572-e7be6537316a, !- Wednesday Schedule:Day Name
  a67115f7-0c0f-4c55-8e0f-8c1563bca754, !- Thursday Schedule:Day Name
  194f9090-8a79-4b3e-b2cb-84600edd803d, !- Friday Schedule:Day Name
  fdb4c805-b148-45b7-8a80-2cfb62477cf0, !- Saturday Schedule:Day Name
  41e3706f-bfd9-475a-a1c9-97befab7e728, !- Holiday Schedule:Day Name
  41e3706f-bfd9-475a-a1c9-97befab7e728, !- SummerDesignDay Schedule:Day Name
  41e3706f-bfd9-475a-a1c9-97befab7e728, !- WinterDesignDay Schedule:Day Name
  41e3706f-bfd9-475a-a1c9-97befab7e728, !- CustomDay1 Schedule:Day Name
  41e3706f-bfd9-475a-a1c9-97befab7e728; !- CustomDay2 Schedule:Day Name

Schedule:Week:Daily, CoolAvail_Uhall_0_1,
  db07ce6c-1d0b-40f1-9724-6f7446501cfa, !- Sunday Schedule:Day Name
  2ef58c4e-7782-433d-b245-3dfc69d2d938, !- Monday Schedule:Day Name
  8554aa95-b668-4dca-a63c-ef558b6840aa, !- Tuesday Schedule:Day Name
  f2ee4175-6857-4605-9cf5-0d689a499c7e, !- Wednesday Schedule:Day Name
  77121a80-c25f-4aee-a029-030d4ae72bd5, !- Thursday Schedule:Day Name
  fffc3896-25cf-44af-94cd-55cf098dfa24, !- Friday Schedule:Day Name
  149ccc56-7a22-414c-9f75-6d599b7fdbc0, !- Saturday Schedule:Day Name
  db07ce6c-1d0b-40f1-9724-6f7446501cfa, !- Holiday Schedule:Day Name
  db07ce6c-1d0b-40f1-9724-6f7446501cfa, !- SummerDesignDay Schedule:Day Name
  db07ce6c-1d0b-40f1-9724-6f7446501cfa, !- WinterDesignDay Schedule:Day Name
  db07ce6c-1d0b-40f1-9724-6f7446501cfa, !- CustomDay1 Schedule:Day Name
  db07ce6c-1d0b-40f1-9724-6f7446501cfa; !- CustomDay2 Schedule:Day Name

Schedule:Week:Daily, CoolAvail_Uhall_0_2,
  7c6f2c83-bb2d-4e27-9aec-c8de8118fafc, !- Sunday Schedule:Day Name
  a3f53767-956a-4abc-8ccb-cce3d777838f, !- Monday Schedule:Day Name
  77121a80-c25f-4aee-a029-030d4ae72bd5, !- Tuesday Schedule:Day Name
  b1e451ea-7f95-4729-8564-cad973b34af2, !- Wednesday Schedule:Day Name
  003c1343-9910-4965-afdd-74b0b1b28fbc, !- Thursday Schedule:Day Name
  d85c2b70-7dd5-425e-834c-41bbc1fc5abe, !- Friday Schedule:Day Name
  32c04440-bd43-4dae-8e45-5b77bce29465, !- Saturday Schedule:Day Name
  7c6f2c83-bb2d-4e27-9aec-c8de8118fafc, !- Holiday Schedule:Day Name
  7c6f2c83-bb2d-4e27-9aec-c8de8118fafc, !- SummerDesignDay Schedule:Day Name
  7c6f2c83-bb2d-4e27-9aec-c8de8118fafc, !- WinterDesignDay Schedule:Day Name
  7c6f2c83-bb2d-4e27-9aec-c8de8118fafc, !- CustomDay1 Schedule:Day Name
  7c6f2c83-bb2d-4e27-9aec-c8de8118fafc; !- CustomDay2 Schedule:Day Name

Schedule:Week:Daily, CoolAvail_Uhall_0_3,
  fc0c8862-1914-459e-ac44-f57620b0de64, !- Sunday Schedule:Day Name
  43b29f55-281e-49cd-b712-60673e09300b, !- Monday Schedule:Day Name
  bc2b132b-3301-4997-a409-8251784d9710, !- Tuesday Schedule:Day Name
  a3b6eae0-cd16-4146-a72c-33d93536b6d5, !- Wednesday Schedule:Day Name
  a297b178-5400-48e8-8c2b-5383d49696c1, !- Thursday Schedule:Day Name
  41e3706f-bfd9-475a-a1c9-97befab7e728, !- Friday Schedule:Day Name
  0bd720d0-16f9-43d1-8c99-a7f570c083cc, !- Saturday Schedule:Day Name
  fc0c8862-1914-459e-ac44-f57620b0de64, !- Holiday Schedule:Day Name
  fc0c8862-1914-459e-ac44-f57620b0de64, !- SummerDesignDay Schedule:Day Name
  fc0c8862-1914-459e-ac44-f57620b0de64, !- WinterDesignDay Schedule:Day Name
  fc0c8862-1914-459e-ac44-f57620b0de64, !- CustomDay1 Schedule:Day Name
  fc0c8862-1914-459e-ac44-f57620b0de64; !- CustomDay2 Schedule:Day Name

Schedule:Week:Daily, CoolAvail_Uhall_0_4,
  34931478-d65c-4a1a-80c3-ffcafce02f3b, !- Sunday Schedule:Day Name
  0be8be69-e262-4302-bc3f-879d800dc5b3, !- Monday Schedule:Day Name
  393e0f77-cf9c-4917-a52e-2c18a27275d3, !- Tuesday Schedule:Day Name
  ec5d5c53-5788-4abc-8180-0154a594163a, !- Wednesday Schedule:Day Name
  1c7e563f-1008-46b0-a08b-5b2059d839fd, !- Thursday Schedule:Day Name
  25d9ae31-c511-4500-9310-47b36bc8755f, !- Friday Schedule:Day Name
  0be8be69-e262-4302-bc3f-879d800dc5b3, !- Saturday Schedule:Day Name
  34931478-d65c-4a1a-80c3-ffcafce02f3b, !- Holiday Schedule:Day Name
  34931478-d65c-4a1a-80c3-ffcafce02f3b, !- SummerDesignDay Schedule:Day Name
  34931478-d65c-4a1a-80c3-ffcafce02f3b, !- WinterDesignDay Schedule:Day Name
  34931478-d65c-4a1a-80c3-ffcafce02f3b, !- CustomDay1 Schedule:Day Name
  34931478-d65c-4a1a-80c3-ffcafce02f3b; !- CustomDay2 Schedule:Day Name

Schedule:Week:Daily, CoolAvail_Uhall_0_5,
  328c9e66-c026-4f7c-941e-35b09cce5eaf, !- Sunday Schedule:Day Name
  0bcc7613-16c7-4f50-b4d0-f3000df73108, !- Monday Schedule:Day Name
  95e1dacb-4847-45bb-8ff6-329f5872c8ae, !- Tuesday Schedule:Day Name
  a368cf70-1db9-4d2f-addf-36a33630691f, !- Wednesday Schedule:Day Name
  cfd69087-4443-4d2d-83c7-c51484c2fd0f, !- Thursday Schedule:Day Name
  eaea7ef1-044b-4db2-9232-ebc82cdee0b3, !- Friday Schedule:Day Name
  e92e06b3-11b9-4b8d-8aab-264918818f6d, !- Saturday Schedule:Day Name
  328c9e66-c026-4f7c-941e-35b09cce5eaf, !- Holiday Schedule:Day Name
  328c9e66-c026-4f7c-941e-35b09cce5eaf, !- SummerDesignDay Schedule:Day Name
  328c9e66-c026-4f7c-941e-35b09cce5eaf, !- WinterDesignDay Schedule:Day Name
  328c9e66-c026-4f7c-941e-35b09cce5eaf, !- CustomDay1 Schedule:Day Name
  328c9e66-c026-4f7c-941e-35b09cce5eaf; !- CustomDay2 Schedule:Day Name

Schedule:Week:Daily, CoolAvail_Uhall_0_6,
  9028a64a-fa1d-4ac5-ba6b-f5c559afd600, !- Sunday Schedule:Day Name
  e5ca6391-3192-4c0e-8131-34b922f7b05b, !- Monday Schedule:Day Name
  8a7d1130-7860-4e5d-9136-6d20c174eaa8, !- Tuesday Schedule:Day Name
  10834950-445a-4d6c-86dc-96d8ef2e6718, !- Wednesday Schedule:Day Name
  0af50177-0b11-49a9-aba1-fc396bc8b445, !- Thursday Schedule:Day Name
  cb927db4-a6bb-4d7f-b4ff-91dc8e4b721c, !- Friday Schedule:Day Name
  43a85af4-5db7-43c8-b0b0-0cfb932f600b, !- Saturday Schedule:Day Name
  9028a64a-fa1d-4ac5-ba6b-f5c559afd600, !- Holiday Schedule:Day Name
  9028a64a-fa1d-4ac5-ba6b-f5c559afd600, !- SummerDesignDay Schedule:Day Name
  9028a64a-fa1d-4ac5-ba6b-f5c559afd600, !- WinterDesignDay Schedule:Day Name
  9028a64a-fa1d-4ac5-ba6b-f5c559afd600, !- CustomDay1 Schedule:Day Name
  9028a64a-fa1d-4ac5-ba6b-f5c559afd600; !- CustomDay2 Schedule:Day Name

Schedule:Week:Daily, CoolAvail_Uhall_0_7,
  bea93d85-fc23-433c-a16f-b5a2a5c822be, !- Sunday Schedule:Day Name
  db693b62-aad0-4b69-a419-fa5af28b9cf3, !- Monday Schedule:Day Name
  a7c11301-8e18-412d-a485-a5004bdc39de, !- Tuesday Schedule:Day Name
  d241b76a-ac68-4807-ab79-8a768b6f61a7, !- Wednesday Schedule:Day Name
  5369e767-0d8e-4b32-8cd4-c346fa9b5939, !- Thursday Schedule:Day Name
  f7156fc8-91b6-48a4-9085-4e32a69e2b1a, !- Friday Schedule:Day Name
  35fda236-6921-48e6-9830-098c5263a011, !- Saturday Schedule:Day Name
  bea93d85-fc23-433c-a16f-b5a2a5c822be, !- Holiday Schedule:Day Name
  bea93d85-fc23-433c-a16f-b5a2a5c822be, !- SummerDesignDay Schedule:Day Name
  bea93d85-fc23-433c-a16f-b5a2a5c822be, !- WinterDesignDay Schedule:Day Name
  bea93d85-fc23-433c-a16f-b5a2a5c822be, !- CustomDay1 Schedule:Day Name
  bea93d85-fc23-433c-a16f-b5a2a5c822be; !- CustomDay2 Schedule:Day Name

Schedule:Week:Daily, CoolAvail_Uhall_0_8,
  fd62cacc-abe7-44f2-8770-210d11e35613, !- Sunday Schedule:Day Name
  7ee65adc-2d17-47fb-89dd-ade89af1af84, !- Monday Schedule:Day Name
  c0654989-8f39-4b18-864e-eb22d4a3342d, !- Tuesday Schedule:Day Name
  23d9486e-cd81-49e8-b8ac-7b3449a86746, !- Wednesday Schedule:Day Name
  5f4d8d22-0120-4d1b-a6b7-a035c5265ab1, !- Thursday Schedule:Day Name
  674b06d3-b604-48ea-86a4-add5b25dbf48, !- Friday Schedule:Day Name
  1d82ed7c-05c0-4b74-ae5d-eac78ce218c4, !- Saturday Schedule:Day Name
  fd62cacc-abe7-44f2-8770-210d11e35613, !- Holiday Schedule:Day Name
  fd62cacc-abe7-44f2-8770-210d11e35613, !- SummerDesignDay Schedule:Day Name
  fd62cacc-abe7-44f2-8770-210d11e35613, !- WinterDesignDay Schedule:Day Name
  fd62cacc-abe7-44f2-8770-210d11e35613, !- CustomDay1 Schedule:Day Name
  fd62cacc-abe7-44f2-8770-210d11e35613; !- CustomDay2 Schedule:Day Name

Schedule:Week:Daily, CoolAvail_Uhall_0_9,
  0e1ef495-01ff-4a26-b207-13c7c6a3d751, !- Sunday Schedule:Day Name
  0a4c2ba7-d084-4828-9f66-3e72c7ca00d1, !- Monday Schedule:Day Name
  1d82ed7c-05c0-4b74-ae5d-eac78ce218c4, !- Tuesday Schedule:Day Name
  165a3cea-29f3-4c38-8ee1-088ed4f1a1f9, !- Wednesday Schedule:Day Name
  bca71fbe-a804-43d9-82c7-7b29d92ffc62, !- Thursday Schedule:Day Name
  8779e041-43cc-4635-9be7-dc18ccee0d4f, !- Friday Schedule:Day Name
  e2581a7b-43c2-4a59-aa58-16e064d3d041, !- Saturday Schedule:Day Name
  0e1ef495-01ff-4a26-b207-13c7c6a3d751, !- Holiday Schedule:Day Name
  0e1ef495-01ff-4a26-b207-13c7c6a3d751, !- SummerDesignDay Schedule:Day Name
  0e1ef495-01ff-4a26-b207-13c7c6a3d751, !- WinterDesignDay Schedule:Day Name
  0e1ef495-01ff-4a26-b207-13c7c6a3d751, !- CustomDay1 Schedule:Day Name
  0e1ef495-01ff-4a26-b207-13c7c6a3d751; !- CustomDay2 Schedule:Day Name

Schedule:Week:Daily, CoolAvail_Uhall_0_10,
  6c68c950-6354-4773-92b4-119c0da3ab9c, !- Sunday Schedule:Day Name
  1d82ed7c-05c0-4b74-ae5d-eac78ce218c4, !- Monday Schedule:Day Name
  d043911a-a4e4-4a07-b4eb-d4b02cd2e68c, !- Tuesday Schedule:Day Name
  0054b859-2743-4922-be13-5121baa5f1fc, !- Wednesday Schedule:Day Name
  d57da6fb-427e-400c-902e-f2079f1c96f6, !- Thursday Schedule:Day Name
  24eab098-ccec-4794-8b70-b730c65f53b9, !- Friday Schedule:Day Name
  e458a064-98d4-4dda-8a7b-4235616c96f6, !- Saturday Schedule:Day Name
  6c68c950-6354-4773-92b4-119c0da3ab9c, !- Holiday Schedule:Day Name
  6c68c950-6354-4773-92b4-119c0da3ab9c, !- SummerDesignDay Schedule:Day Name
  6c68c950-6354-4773-92b4-119c0da3ab9c, !- WinterDesignDay Schedule:Day Name
  6c68c950-6354-4773-92b4-119c0da3ab9c, !- CustomDay1 Schedule:Day Name
  6c68c950-6354-4773-92b4-119c0da3ab9c; !- CustomDay2 Schedule:Day Name

Schedule:Week:Daily, CoolAvail_Uhall_0_11,
  1d82ed7c-05c0-4b74-ae5d-eac78ce218c4, !- Sunday Schedule:Day Name
  1dd2a086-aa54-43d9-8216-67f41470d57f, !- Monday Schedule:Day Name
  7db43608-da88-4c74-9608-fe96a58b802d, !- Tuesday Schedule:Day Name
  d081e0ff-e50c-4c41-94dc-eb66605a89d4, !- Wednesday Schedule:Day Name
  41d41c44-63b3-4d16-ae11-5af6e43e17b0, !- Thursday Schedule:Day Name
  c43bcfc8-d056-4e56-be7d-fce85ea835ef, !- Friday Schedule:Day Name
  9505b86a-ae0c-4c3f-bbab-e2abc7e9cd5e, !- Saturday Schedule:Day Name
  1d82ed7c-05c0-4b74-ae5d-eac78ce218c4, !- Holiday Schedule:Day Name
  1d82ed7c-05c0-4b74-ae5d-eac78ce218c4, !- SummerDesignDay Schedule:Day Name
  1d82ed7c-05c0-4b74-ae5d-eac78ce218c4, !- WinterDesignDay Schedule:Day Name
  1d82ed7c-05c0-4b74-ae5d-eac78ce218c4, !- CustomDay1 Schedule:Day Name
  1d82ed7c-05c0-4b74-ae5d-eac78ce218c4; !- CustomDay2 Schedule:Day Name

Schedule:Week:Daily, CoolAvail_Uhall_0_12,
  07f88278-11cf-423e-9762-aa66966af8c8, !- Sunday Schedule:Day Name
  736c379e-de2b-405b-ab38-5d560375cccc, !- Monday Schedule:Day Name
  15e9c3dd-f94b-46ad-94c2-7e84793e8880, !- Tuesday Schedule:Day Name
  f8150d4e-54ab-47d6-8b5e-4338ca9fef7d, !- Wednesday Schedule:Day Name
  cc2d64af-ed4f-4791-9c5b-00e883829291, !- Thursday Schedule:Day Name
  455044cb-f37e-440c-9569-b0253388d59d, !- Friday Schedule:Day Name
  8dde9b7d-4ffc-4661-b186-eec473e4b3fb, !- Saturday Schedule:Day Name
  07f88278-11cf-423e-9762-aa66966af8c8, !- Holiday Schedule:Day Name
  07f88278-11cf-423e-9762-aa66966af8c8, !- SummerDesignDay Schedule:Day Name
  07f88278-11cf-423e-9762-aa66966af8c8, !- WinterDesignDay Schedule:Day Name
  07f88278-11cf-423e-9762-aa66966af8c8, !- CustomDay1 Schedule:Day Name
  07f88278-11cf-423e-9762-aa66966af8c8; !- CustomDay2 Schedule:Day Name

Schedule:Week:Daily, CoolAvail_Uhall_0_13,
  c08be0c4-fcfa-406c-abdd-96a7b03b8551, !- Sunday Schedule:Day Name
  cb14452f-51dd-48e2-99e8-3dfb1e8afad8, !- Monday Schedule:Day Name
  505a70fc-b842-411e-897e-ccfe53d96d7b, !- Tuesday Schedule:Day Name
  4674d4ad-ae5e-4b79-a76a-2395b75afc9a, !- Wednesday Schedule:Day Name
  4f1f9660-3ca3-4c6a-a42a-adf5a542d551, !- Thursday Schedule:Day Name
  0a821289-0550-470a-96e4-e78c7fa47668, !- Friday Schedule:Day Name
  9efa68b0-563c-4c22-8c0a-f95819fc4dfa, !- Saturday Schedule:Day Name
  c08be0c4-fcfa-406c-abdd-96a7b03b8551, !- Holiday Schedule:Day Name
  c08be0c4-fcfa-406c-abdd-96a7b03b8551, !- SummerDesignDay Schedule:Day Name
  c08be0c4-fcfa-406c-abdd-96a7b03b8551, !- WinterDesignDay Schedule:Day Name
  c08be0c4-fcfa-406c-abdd-96a7b03b8551, !- CustomDay1 Schedule:Day Name
  c08be0c4-fcfa-406c-abdd-96a7b03b8551; !- CustomDay2 Schedule:Day Name

Schedule:Week:Daily, CoolAvail_Uhall_0_14,
  f9308e66-c808-4c21-b694-b1e3117985f1, !- Sunday Schedule:Day Name
  e362bb62-e392-4f98-89a4-c7616ee0da78, !- Monday Schedule:Day Name
  bdf4e634-f655-46b8-bb46-530eedc0b97c, !- Tuesday Schedule:Day Name
  6a83668f-6a61-4c04-9981-e358ef47ac49, !- Wednesday Schedule:Day Name
  3ba98dbe-32cd-4081-9a77-954be1298001, !- Thursday Schedule:Day Name
  3d6d7624-3e5b-4558-a5ed-ea13f6046ad1, !- Friday Schedule:Day Name
  61d646ef-99a8-40fd-8593-29998eb71547, !- Saturday Schedule:Day Name
  f9308e66-c808-4c21-b694-b1e3117985f1, !- Holiday Schedule:Day Name
  f9308e66-c808-4c21-b694-b1e3117985f1, !- SummerDesignDay Schedule:Day Name
  f9308e66-c808-4c21-b694-b1e3117985f1, !- WinterDesignDay Schedule:Day Name
  f9308e66-c808-4c21-b694-b1e3117985f1, !- CustomDay1 Schedule:Day Name
  f9308e66-c808-4c21-b694-b1e3117985f1; !- CustomDay2 Schedule:Day Name

Schedule:Week:Daily, CoolAvail_Uhall_0_15,
  ed082062-79aa-4376-9da4-cbc792f80ecc, !- Sunday Schedule:Day Name
  feebe028-c72b-4222-9db5-db50b9d0df7c, !- Monday Schedule:Day Name
  68b4197a-0a3c-45c0-aedb-0df11bae7eae, !- Tuesday Schedule:Day Name
  43ce78f5-0925-4cd2-8616-c9d19e1a19c7, !- Wednesday Schedule:Day Name
  5755456c-06a8-49fc-972e-33671b8ae1b7, !- Thursday Schedule:Day Name
  5200658d-c955-470e-95e0-ef04002790a9, !- Friday Schedule:Day Name
  498a6981-8755-461b-a987-a16443a03934, !- Saturday Schedule:Day Name
  ed082062-79aa-4376-9da4-cbc792f80ecc, !- Holiday Schedule:Day Name
  ed082062-79aa-4376-9da4-cbc792f80ecc, !- SummerDesignDay Schedule:Day Name
  ed082062-79aa-4376-9da4-cbc792f80ecc, !- WinterDesignDay Schedule:Day Name
  ed082062-79aa-4376-9da4-cbc792f80ecc, !- CustomDay1 Schedule:Day Name
  ed082062-79aa-4376-9da4-cbc792f80ecc; !- CustomDay2 Schedule:Day Name

Schedule:Week:Daily, CoolAvail_Uhall_0_16,
  454ad031-8e21-49a2-a97a-4076dc712759, !- Sunday Schedule:Day Name
  db00bee3-6bf5-4e51-860b-7654a3651c02, !- Monday Schedule:Day Name
  a13aa85a-000d-465c-a9a8-7c2b2f731fb1, !- Tuesday Schedule:Day Name
  b3e65846-52eb-4956-9420-03c2995b8da9, !- Wednesday Schedule:Day Name
  20378aa8-d61a-4f74-91d5-683cd33f14d5, !- Thursday Schedule:Day Name
  fad559f8-ab1f-4fb4-ae5d-f9fc2a055e9e, !- Friday Schedule:Day Name
  4a4370d5-d342-4cee-ac74-5d9edba1a746, !- Saturday Schedule:Day Name
  454ad031-8e21-49a2-a97a-4076dc712759, !- Holiday Schedule:Day Name
  454ad031-8e21-49a2-a97a-4076dc712759, !- SummerDesignDay Schedule:Day Name
  454ad031-8e21-49a2-a97a-4076dc712759, !- WinterDesignDay Schedule:Day Name
  454ad031-8e21-49a2-a97a-4076dc712759, !- CustomDay1 Schedule:Day Name
  454ad031-8e21-49a2-a97a-4076dc712759; !- CustomDay2 Schedule:Day Name

Schedule:Week:Daily, CoolAvail_Uhall_0_17,
  6592fa1c-f5c6-49ea-82db-1ad3efec4262, !- Sunday Schedule:Day Name
  3475fa83-0e1f-4ab1-b220-799a4c7799d6, !- Monday Schedule:Day Name
  4020d7ec-4854-4dc2-acbd-a5153dbbd921, !- Tuesday Schedule:Day Name
  e589f685-a84e-4818-aee8-363d6345deae, !- Wednesday Schedule:Day Name
  1c53175b-d2d7-4a58-ab36-0fb8bf22b624, !- Thursday Schedule:Day Name
  b7f6722b-7e15-44fc-a5b6-c7948cf2828b, !- Friday Schedule:Day Name
  cdbf392b-ad92-429b-8fa1-e90a48041854, !- Saturday Schedule:Day Name
  6592fa1c-f5c6-49ea-82db-1ad3efec4262, !- Holiday Schedule:Day Name
  6592fa1c-f5c6-49ea-82db-1ad3efec4262, !- SummerDesignDay Schedule:Day Name
  6592fa1c-f5c6-49ea-82db-1ad3efec4262, !- WinterDesignDay Schedule:Day Name
  6592fa1c-f5c6-49ea-82db-1ad3efec4262, !- CustomDay1 Schedule:Day Name
  6592fa1c-f5c6-49ea-82db-1ad3efec4262; !- CustomDay2 Schedule:Day Name

Schedule:Week:Daily, CoolAvail_Uhall_0_18,
  aa9000a8-7474-43d7-afaa-83856b8bd1f2, !- Sunday Schedule:Day Name
  4ec5bce3-6218-4115-b27d-d4e593f8f2d8, !- Monday Schedule:Day Name
  492b02ff-45e8-4ae6-bd06-09335d1ef1e6, !- Tuesday Schedule:Day Name
  aa9000a8-7474-43d7-afaa-83856b8bd1f2, !- Wednesday Schedule:Day Name
  b22414ec-ceea-47c7-9d2f-369ee415b721, !- Thursday Schedule:Day Name
  a24abd1d-2bfc-4427-b543-e2912398e3db, !- Friday Schedule:Day Name
  3c386093-14a7-4751-8f54-93ff7cfd9247, !- Saturday Schedule:Day Name
  aa9000a8-7474-43d7-afaa-83856b8bd1f2, !- Holiday Schedule:Day Name
  aa9000a8-7474-43d7-afaa-83856b8bd1f2, !- SummerDesignDay Schedule:Day Name
  aa9000a8-7474-43d7-afaa-83856b8bd1f2, !- WinterDesignDay Schedule:Day Name
  aa9000a8-7474-43d7-afaa-83856b8bd1f2, !- CustomDay1 Schedule:Day Name
  aa9000a8-7474-43d7-afaa-83856b8bd1f2; !- CustomDay2 Schedule:Day Name

Schedule:Week:Daily, CoolAvail_Uhall_0_19,
  47df9d88-b14f-43eb-9254-53089a199fba, !- Sunday Schedule:Day Name
  e568a799-18e5-40c9-9397-6138e3e6018b, !- Monday Schedule:Day Name
  a512e456-9579-4a72-9781-54939057d925, !- Tuesday Schedule:Day Name
  ee3fc8ae-8142-4afc-9e43-1875c9e7ea1e, !- Wednesday Schedule:Day Name
  e48a7c3a-0cbb-48f7-875c-b42f9bf48bb6, !- Thursday Schedule:Day Name
  0fb08f27-7588-4a44-9de1-21b786adba81, !- Friday Schedule:Day Name
  f1e54837-410d-46ad-9285-927ae60d0b4c, !- Saturday Schedule:Day Name
  47df9d88-b14f-43eb-9254-53089a199fba, !- Holiday Schedule:Day Name
  47df9d88-b14f-43eb-9254-53089a199fba, !- SummerDesignDay Schedule:Day Name
  47df9d88-b14f-43eb-9254-53089a199fba, !- WinterDesignDay Schedule:Day Name
  47df9d88-b14f-43eb-9254-53089a199fba, !- CustomDay1 Schedule:Day Name
  47df9d88-b14f-43eb-9254-53089a199fba; !- CustomDay2 Schedule:Day Name

Schedule:Week:Daily, CoolAvail_Uhall_0_20,
  257b40ab-5645-4009-97af-efade599dc77, !- Sunday Schedule:Day Name
  5e2766cb-6e55-4f57-8b2d-2d50a1cd2cf9, !- Monday Schedule:Day Name
  47df9d88-b14f-43eb-9254-53089a199fba, !- Tuesday Schedule:Day Name
  d7e7454e-0c62-4fb5-abbb-e8e4b7720e89, !- Wednesday Schedule:Day Name
  de3e5bea-eef4-4964-afd3-3b062cac8df1, !- Thursday Schedule:Day Name
  50dfb5bd-6346-4189-aae5-ad157768b46a, !- Friday Schedule:Day Name
  5db1a842-f249-474b-81c4-4e124656ecfc, !- Saturday Schedule:Day Name
  257b40ab-5645-4009-97af-efade599dc77, !- Holiday Schedule:Day Name
  257b40ab-5645-4009-97af-efade599dc77, !- SummerDesignDay Schedule:Day Name
  257b40ab-5645-4009-97af-efade599dc77, !- WinterDesignDay Schedule:Day Name
  257b40ab-5645-4009-97af-efade599dc77, !- CustomDay1 Schedule:Day Name
  257b40ab-5645-4009-97af-efade599dc77; !- CustomDay2 Schedule:Day Name

Schedule:Week:Daily, CoolAvail_Uhall_0_21,
  bb4a2ede-820a-4d7e-8bc0-263da99094e4, !- Sunday Schedule:Day Name
  0bcc7613-16c7-4f50-b4d0-f3000df73108, !- Monday Schedule:Day Name
  c41f3eef-3b00-4110-8635-a8c3acc68c17, !- Tuesday Schedule:Day Name
  86f06402-88b3-4b63-9d25-9e76e8101479, !- Wednesday Schedule:Day Name
  ff2f4963-8b69-46bb-a096-fda8fec9c632, !- Thursday Schedule:Day Name
  0eb42a9c-9f69-437c-8e44-a644f9d0f833, !- Friday Schedule:Day Name
  cc054fa4-927c-48b5-b4d1-0b32a42e0e8f, !- Saturday Schedule:Day Name
  bb4a2ede-820a-4d7e-8bc0-263da99094e4, !- Holiday Schedule:Day Name
  bb4a2ede-820a-4d7e-8bc0-263da99094e4, !- SummerDesignDay Schedule:Day Name
  bb4a2ede-820a-4d7e-8bc0-263da99094e4, !- WinterDesignDay Schedule:Day Name
  bb4a2ede-820a-4d7e-8bc0-263da99094e4, !- CustomDay1 Schedule:Day Name
  bb4a2ede-820a-4d7e-8bc0-263da99094e4; !- CustomDay2 Schedule:Day Name

Schedule:Week:Daily, CoolAvail_Uhall_0_22,
  4fa9f995-de47-4123-a1da-32c2a08db216, !- Sunday Schedule:Day Name
  887c1822-9f3f-442f-8bea-9f947e944539, !- Monday Schedule:Day Name
  0ca156a9-b41b-49d3-a22c-2b8f75c5e3b2, !- Tuesday Schedule:Day Name
  cdd0423b-c66a-42fd-802f-416a4eafe290, !- Wednesday Schedule:Day Name
  66b6a9bc-8655-4daf-ba28-a4bfb877e586, !- Thursday Schedule:Day Name
  4d12dda1-ec74-40b6-84e2-90b7e16cccc9, !- Friday Schedule:Day Name
  33bcaca4-d62e-4873-9205-4194c9205e9a, !- Saturday Schedule:Day Name
  4fa9f995-de47-4123-a1da-32c2a08db216, !- Holiday Schedule:Day Name
  4fa9f995-de47-4123-a1da-32c2a08db216, !- SummerDesignDay Schedule:Day Name
  4fa9f995-de47-4123-a1da-32c2a08db216, !- WinterDesignDay Schedule:Day Name
  4fa9f995-de47-4123-a1da-32c2a08db216, !- CustomDay1 Schedule:Day Name
  4fa9f995-de47-4123-a1da-32c2a08db216; !- CustomDay2 Schedule:Day Name

Schedule:Week:Daily, CoolAvail_Uhall_0_23,
  1b23769c-9912-4016-bf26-049d1da81ba1, !- Sunday Schedule:Day Name
  82cd46c8-fc09-489d-8852-c2707a102208, !- Monday Schedule:Day Name
  466d0833-84f6-4f6c-9566-8e4586e9d61c, !- Tuesday Schedule:Day Name
  104041d9-cf41-494f-8531-4ac044de259c, !- Wednesday Schedule:Day Name
  2cb8c39a-c21a-472c-afed-46cdfc975710, !- Thursday Schedule:Day Name
  8704b07b-d6a4-4b2c-8d69-87c8568015b9, !- Friday Schedule:Day Name
  ad24687e-ee7d-4634-8f33-3769a78130fb, !- Saturday Schedule:Day Name
  1b23769c-9912-4016-bf26-049d1da81ba1, !- Holiday Schedule:Day Name
  1b23769c-9912-4016-bf26-049d1da81ba1, !- SummerDesignDay Schedule:Day Name
  1b23769c-9912-4016-bf26-049d1da81ba1, !- WinterDesignDay Schedule:Day Name
  1b23769c-9912-4016-bf26-049d1da81ba1, !- CustomDay1 Schedule:Day Name
  1b23769c-9912-4016-bf26-049d1da81ba1; !- CustomDay2 Schedule:Day Name

Schedule:Week:Daily, CoolAvail_Uhall_0_24,
  326ffdde-8fd3-41f8-940d-64e04a4a2eff, !- Sunday Schedule:Day Name
  e23509dc-1e6b-4dcd-a806-1d8a15a982b1, !- Monday Schedule:Day Name
  9c8c7157-9895-4de7-a80b-528a7f400532, !- Tuesday Schedule:Day Name
  cb58139b-61e1-48d8-b714-2857315486d5, !- Wednesday Schedule:Day Name
  3d8a0fe0-3f60-4a94-9286-e59dd67f832b, !- Thursday Schedule:Day Name
  19f96bac-4eb8-444d-b63b-577d2acb7bf2, !- Friday Schedule:Day Name
  1a82f468-baec-40a9-8862-642df44536eb, !- Saturday Schedule:Day Name
  326ffdde-8fd3-41f8-940d-64e04a4a2eff, !- Holiday Schedule:Day Name
  326ffdde-8fd3-41f8-940d-64e04a4a2eff, !- SummerDesignDay Schedule:Day Name
  326ffdde-8fd3-41f8-940d-64e04a4a2eff, !- WinterDesignDay Schedule:Day Name
  326ffdde-8fd3-41f8-940d-64e04a4a2eff, !- CustomDay1 Schedule:Day Name
  326ffdde-8fd3-41f8-940d-64e04a4a2eff; !- CustomDay2 Schedule:Day Name

Schedule:Week:Daily, CoolAvail_Uhall_0_25,
  c953ed02-1326-45c0-ada6-a1da0aa19310, !- Sunday Schedule:Day Name
  6b59d7ae-dbb3-4dd7-a191-161a56a18069, !- Monday Schedule:Day Name
  41480300-d2e8-45cd-ac1f-e24d05f81de1, !- Tuesday Schedule:Day Name
  0655b9da-9a35-4af4-9b1b-e392613f76c2, !- Wednesday Schedule:Day Name
  6ec52194-3fcb-4ce8-a9b7-7dabf0a4ccd8, !- Thursday Schedule:Day Name
  cc874c5d-adb5-40c8-a2b7-ba86e56e8c24, !- Friday Schedule:Day Name
  34252c3c-99b2-45fa-9e65-818269cba713, !- Saturday Schedule:Day Name
  c953ed02-1326-45c0-ada6-a1da0aa19310, !- Holiday Schedule:Day Name
  c953ed02-1326-45c0-ada6-a1da0aa19310, !- SummerDesignDay Schedule:Day Name
  c953ed02-1326-45c0-ada6-a1da0aa19310, !- WinterDesignDay Schedule:Day Name
  c953ed02-1326-45c0-ada6-a1da0aa19310, !- CustomDay1 Schedule:Day Name
  c953ed02-1326-45c0-ada6-a1da0aa19310; !- CustomDay2 Schedule:Day Name

Schedule:Week:Daily, CoolAvail_Uhall_0_26,
  ee6a48ba-f6e8-4a4d-a342-0cf44f816c2d, !- Sunday Schedule:Day Name
  790219e2-9bcc-4f55-afc6-903160baa57f, !- Monday Schedule:Day Name
  4874cf86-287b-463b-8b64-cb114fd8627f, !- Tuesday Schedule:Day Name
  cd7dfd49-4afa-489d-b7de-dade7d03bfb6, !- Wednesday Schedule:Day Name
  ebaf5f8b-b01f-46fb-81ec-98a16710fb94, !- Thursday Schedule:Day Name
  d2d7cca7-833c-4756-9e39-c34c57ad9d6f, !- Friday Schedule:Day Name
  1358614b-db8a-4271-8781-99c0d811afea, !- Saturday Schedule:Day Name
  ee6a48ba-f6e8-4a4d-a342-0cf44f816c2d, !- Holiday Schedule:Day Name
  ee6a48ba-f6e8-4a4d-a342-0cf44f816c2d, !- SummerDesignDay Schedule:Day Name
  ee6a48ba-f6e8-4a4d-a342-0cf44f816c2d, !- WinterDesignDay Schedule:Day Name
  ee6a48ba-f6e8-4a4d-a342-0cf44f816c2d, !- CustomDay1 Schedule:Day Name
  ee6a48ba-f6e8-4a4d-a342-0cf44f816c2d; !- CustomDay2 Schedule:Day Name

Schedule:Week:Daily, CoolAvail_Uhall_0_27,
  88538c19-4e1c-4c93-968e-a84e0a2e2905, !- Sunday Schedule:Day Name
  30746125-26cb-44f9-9219-ecabeb5c5564, !- Monday Schedule:Day Name
  d1fe743a-b2dd-4d72-be1e-1c55caf8a9c1, !- Tuesday Schedule:Day Name
  79e8083e-5084-4368-801e-cd49d4bbfd0f, !- Wednesday Schedule:Day Name
  75c11437-9738-445e-9ba1-95cfc2f177c1, !- Thursday Schedule:Day Name
  ef5ef648-948e-422a-b66a-496e329441ce, !- Friday Schedule:Day Name
  75e30a45-5e2a-4b1b-a777-9d0ea8587a04, !- Saturday Schedule:Day Name
  88538c19-4e1c-4c93-968e-a84e0a2e2905, !- Holiday Schedule:Day Name
  88538c19-4e1c-4c93-968e-a84e0a2e2905, !- SummerDesignDay Schedule:Day Name
  88538c19-4e1c-4c93-968e-a84e0a2e2905, !- WinterDesignDay Schedule:Day Name
  88538c19-4e1c-4c93-968e-a84e0a2e2905, !- CustomDay1 Schedule:Day Name
  88538c19-4e1c-4c93-968e-a84e0a2e2905; !- CustomDay2 Schedule:Day Name

Schedule:Week:Daily, CoolAvail_Uhall_0_28,
  d4812dce-92e4-4fd0-843d-48cd88d0cfdb, !- Sunday Schedule:Day Name
  b9ae9906-f4e1-43b9-8f97-aaea69d61698, !- Monday Schedule:Day Name
  5ccce423-96fe-4502-9b43-87c16520157c, !- Tuesday Schedule:Day Name
  ee5123e2-f31d-4230-ae78-fba15c64a974, !- Wednesday Schedule:Day Name
  e589f685-a84e-4818-aee8-363d6345deae, !- Thursday Schedule:Day Name
  c53bd331-8f9c-419d-a3a8-7bead11b2d16, !- Friday Schedule:Day Name
  bb4a2ede-820a-4d7e-8bc0-263da99094e4, !- Saturday Schedule:Day Name
  d4812dce-92e4-4fd0-843d-48cd88d0cfdb, !- Holiday Schedule:Day Name
  d4812dce-92e4-4fd0-843d-48cd88d0cfdb, !- SummerDesignDay Schedule:Day Name
  d4812dce-92e4-4fd0-843d-48cd88d0cfdb, !- WinterDesignDay Schedule:Day Name
  d4812dce-92e4-4fd0-843d-48cd88d0cfdb, !- CustomDay1 Schedule:Day Name
  d4812dce-92e4-4fd0-843d-48cd88d0cfdb; !- CustomDay2 Schedule:Day Name

Schedule:Week:Daily, CoolAvail_Uhall_0_29,
  1559fa51-9286-4c10-a57b-1f7c5a28632d, !- Sunday Schedule:Day Name
  1b8d56f9-f2b4-464c-baf6-a44d808d749f, !- Monday Schedule:Day Name
  cc486075-51d8-404e-b9ea-f0e77f34440d, !- Tuesday Schedule:Day Name
  e3c926c1-ab64-47a5-b6c1-cde8f6a3eff9, !- Wednesday Schedule:Day Name
  e589f685-a84e-4818-aee8-363d6345deae, !- Thursday Schedule:Day Name
  e589f685-a84e-4818-aee8-363d6345deae, !- Friday Schedule:Day Name
  83cfeb36-5ad1-4462-a527-89aeb552d20d, !- Saturday Schedule:Day Name
  1559fa51-9286-4c10-a57b-1f7c5a28632d, !- Holiday Schedule:Day Name
  1559fa51-9286-4c10-a57b-1f7c5a28632d, !- SummerDesignDay Schedule:Day Name
  1559fa51-9286-4c10-a57b-1f7c5a28632d, !- WinterDesignDay Schedule:Day Name
  1559fa51-9286-4c10-a57b-1f7c5a28632d, !- CustomDay1 Schedule:Day Name
  1559fa51-9286-4c10-a57b-1f7c5a28632d; !- CustomDay2 Schedule:Day Name

Schedule:Week:Daily, CoolAvail_Uhall_0_30,
  20db4f2f-f3b0-41af-a0df-482547954cae, !- Sunday Schedule:Day Name
  1d82ed7c-05c0-4b74-ae5d-eac78ce218c4, !- Monday Schedule:Day Name
  c4b0594f-9bde-40f1-be48-02ebd69c7348, !- Tuesday Schedule:Day Name
  b0ad4eb1-137e-417d-afb5-233ba4f6d5e7, !- Wednesday Schedule:Day Name
  a361a9e9-5ea1-4cc8-858e-a30e088409c0, !- Thursday Schedule:Day Name
  6dc5f9fe-6689-4feb-bc3f-969f1dab456c, !- Friday Schedule:Day Name
  ae740c22-83ad-4d72-822a-72d738c84b4c, !- Saturday Schedule:Day Name
  20db4f2f-f3b0-41af-a0df-482547954cae, !- Holiday Schedule:Day Name
  20db4f2f-f3b0-41af-a0df-482547954cae, !- SummerDesignDay Schedule:Day Name
  20db4f2f-f3b0-41af-a0df-482547954cae, !- WinterDesignDay Schedule:Day Name
  20db4f2f-f3b0-41af-a0df-482547954cae, !- CustomDay1 Schedule:Day Name
  20db4f2f-f3b0-41af-a0df-482547954cae; !- CustomDay2 Schedule:Day Name

Schedule:Week:Daily, CoolAvail_Uhall_0_31,
  2fb2d763-5f3b-4b91-a97d-dab8fc16594a, !- Sunday Schedule:Day Name
  d7e7454e-0c62-4fb5-abbb-e8e4b7720e89, !- Monday Schedule:Day Name
  cc486075-51d8-404e-b9ea-f0e77f34440d, !- Tuesday Schedule:Day Name
  0c2f5271-cff0-4a69-a1f3-5080dd4e2f9a, !- Wednesday Schedule:Day Name
  8a9a608f-8df8-49a6-b34f-d6e6eb8d9ef6, !- Thursday Schedule:Day Name
  fe0c08fd-7af7-435e-b2c1-ca638bd41060, !- Friday Schedule:Day Name
  227444cc-a8b7-47ed-ba15-db845e38a4f7, !- Saturday Schedule:Day Name
  2fb2d763-5f3b-4b91-a97d-dab8fc16594a, !- Holiday Schedule:Day Name
  2fb2d763-5f3b-4b91-a97d-dab8fc16594a, !- SummerDesignDay Schedule:Day Name
  2fb2d763-5f3b-4b91-a97d-dab8fc16594a, !- WinterDesignDay Schedule:Day Name
  2fb2d763-5f3b-4b91-a97d-dab8fc16594a, !- CustomDay1 Schedule:Day Name
  2fb2d763-5f3b-4b91-a97d-dab8fc16594a; !- CustomDay2 Schedule:Day Name

Schedule:Week:Daily, CoolAvail_Uhall_0_32,
  60699407-8e47-45ec-8a04-47a0ae7f4457, !- Sunday Schedule:Day Name
  3f977091-cb24-4c87-a0b1-3a36739f0a4a, !- Monday Schedule:Day Name
  c6a5d389-0457-4692-96d1-bd8dbc1a82d5, !- Tuesday Schedule:Day Name
  1c58df69-9b14-49e4-90e6-423c74abc6ae, !- Wednesday Schedule:Day Name
  a8ad3596-634a-48eb-bad2-500617258e52, !- Thursday Schedule:Day Name
  65845a05-8a8c-42bf-95d9-b6d2e368aa02, !- Friday Schedule:Day Name
  6a86ab29-eecf-41bd-8819-4c06628de85e, !- Saturday Schedule:Day Name
  60699407-8e47-45ec-8a04-47a0ae7f4457, !- Holiday Schedule:Day Name
  60699407-8e47-45ec-8a04-47a0ae7f4457, !- SummerDesignDay Schedule:Day Name
  60699407-8e47-45ec-8a04-47a0ae7f4457, !- WinterDesignDay Schedule:Day Name
  60699407-8e47-45ec-8a04-47a0ae7f4457, !- CustomDay1 Schedule:Day Name
  60699407-8e47-45ec-8a04-47a0ae7f4457; !- CustomDay2 Schedule:Day Name

Schedule:Week:Daily, CoolAvail_Uhall_0_33,
  3a49a71b-682b-49d9-b452-f680439e5dcd, !- Sunday Schedule:Day Name
  452d2c8e-1c76-4fc6-a22d-1cf568360426, !- Monday Schedule:Day Name
  6c2d03cb-d23c-459b-b72a-ef676cd13fe8, !- Tuesday Schedule:Day Name
  f1d434eb-759d-49dc-a6db-a1d232a3d517, !- Wednesday Schedule:Day Name
  e31e8667-a67c-4b4b-a876-83b78cb6bc00, !- Thursday Schedule:Day Name
  c41f3eef-3b00-4110-8635-a8c3acc68c17, !- Friday Schedule:Day Name
  06767887-9e3e-48a4-9b25-a64a89916fff, !- Saturday Schedule:Day Name
  3a49a71b-682b-49d9-b452-f680439e5dcd, !- Holiday Schedule:Day Name
  3a49a71b-682b-49d9-b452-f680439e5dcd, !- SummerDesignDay Schedule:Day Name
  3a49a71b-682b-49d9-b452-f680439e5dcd, !- WinterDesignDay Schedule:Day Name
  3a49a71b-682b-49d9-b452-f680439e5dcd, !- CustomDay1 Schedule:Day Name
  3a49a71b-682b-49d9-b452-f680439e5dcd; !- CustomDay2 Schedule:Day Name

Schedule:Week:Daily, CoolAvail_Uhall_0_34,
  85f6f0f1-c189-452c-a53e-85cf6df4ea3a, !- Sunday Schedule:Day Name
  3e483427-98b3-411f-ac16-c0e1e9afc8e8, !- Monday Schedule:Day Name
  9e9e7059-73f8-4409-8d30-6832d868240e, !- Tuesday Schedule:Day Name
  9c5a30d7-7394-47f4-a253-b72e66a3f584, !- Wednesday Schedule:Day Name
  a78ecda9-0306-484a-8aea-17141c411591, !- Thursday Schedule:Day Name
  7ea33b74-88dc-449d-9851-80bf0418e2d4, !- Friday Schedule:Day Name
  625a3683-c8b4-4b30-aea2-6b91c24a47e7, !- Saturday Schedule:Day Name
  85f6f0f1-c189-452c-a53e-85cf6df4ea3a, !- Holiday Schedule:Day Name
  85f6f0f1-c189-452c-a53e-85cf6df4ea3a, !- SummerDesignDay Schedule:Day Name
  85f6f0f1-c189-452c-a53e-85cf6df4ea3a, !- WinterDesignDay Schedule:Day Name
  85f6f0f1-c189-452c-a53e-85cf6df4ea3a, !- CustomDay1 Schedule:Day Name
  85f6f0f1-c189-452c-a53e-85cf6df4ea3a; !- CustomDay2 Schedule:Day Name

Schedule:Week:Daily, CoolAvail_Uhall_0_35,
  2bad0aaa-cb40-4398-a2d7-199ee08973b5, !- Sunday Schedule:Day Name
  9e489189-e3b2-47f3-a015-2c17a11543ca, !- Monday Schedule:Day Name
  db07ce6c-1d0b-40f1-9724-6f7446501cfa, !- Tuesday Schedule:Day Name
  06c740f1-3dce-4cfa-a1ef-f8ef9041f529, !- Wednesday Schedule:Day Name
  43a85af4-5db7-43c8-b0b0-0cfb932f600b, !- Thursday Schedule:Day Name
  2038bb20-7ec9-4fac-9f7d-42093d49aa63, !- Friday Schedule:Day Name
  e8e5f328-0ffc-40e8-bad2-47fa7c69a7a0, !- Saturday Schedule:Day Name
  2bad0aaa-cb40-4398-a2d7-199ee08973b5, !- Holiday Schedule:Day Name
  2bad0aaa-cb40-4398-a2d7-199ee08973b5, !- SummerDesignDay Schedule:Day Name
  2bad0aaa-cb40-4398-a2d7-199ee08973b5, !- WinterDesignDay Schedule:Day Name
  2bad0aaa-cb40-4398-a2d7-199ee08973b5, !- CustomDay1 Schedule:Day Name
  2bad0aaa-cb40-4398-a2d7-199ee08973b5; !- CustomDay2 Schedule:Day Name

Schedule:Week:Daily, CoolAvail_Uhall_0_36,
  ab9d70c9-feed-43cc-a1ca-82c74ac5aac6, !- Sunday Schedule:Day Name
  257b40ab-5645-4009-97af-efade599dc77, !- Monday Schedule:Day Name
  c313d9a8-e4d4-46cf-8e09-92cba6c11744, !- Tuesday Schedule:Day Name
  1e1fcf91-df0a-4968-9e03-a562fc365c59, !- Wednesday Schedule:Day Name
  c76d2652-0fbc-4c57-97b5-168db8e2e222, !- Thursday Schedule:Day Name
  bef53187-a794-4334-a5d4-e8a3bd96adbc, !- Friday Schedule:Day Name
  41480300-d2e8-45cd-ac1f-e24d05f81de1, !- Saturday Schedule:Day Name
  ab9d70c9-feed-43cc-a1ca-82c74ac5aac6, !- Holiday Schedule:Day Name
  ab9d70c9-feed-43cc-a1ca-82c74ac5aac6, !- SummerDesignDay Schedule:Day Name
  ab9d70c9-feed-43cc-a1ca-82c74ac5aac6, !- WinterDesignDay Schedule:Day Name
  ab9d70c9-feed-43cc-a1ca-82c74ac5aac6, !- CustomDay1 Schedule:Day Name
  ab9d70c9-feed-43cc-a1ca-82c74ac5aac6; !- CustomDay2 Schedule:Day Name

Schedule:Week:Daily, CoolAvail_Uhall_0_37,
  e589f685-a84e-4818-aee8-363d6345deae, !- Sunday Schedule:Day Name
  bfcd59e4-541e-416e-a329-7b4c50d4a226, !- Monday Schedule:Day Name
  54bdd4b4-fd4a-4fdf-8d53-a77e674ee045, !- Tuesday Schedule:Day Name
  853f86ae-d952-4bb6-8e8f-37ad2bf2c0d8, !- Wednesday Schedule:Day Name
  866934fb-4abc-4012-b7ae-2652c55b91b5, !- Thursday Schedule:Day Name
  003c1343-9910-4965-afdd-74b0b1b28fbc, !- Friday Schedule:Day Name
  a6358ca5-8168-450f-9a34-7eae4738b643, !- Saturday Schedule:Day Name
  e589f685-a84e-4818-aee8-363d6345deae, !- Holiday Schedule:Day Name
  e589f685-a84e-4818-aee8-363d6345deae, !- SummerDesignDay Schedule:Day Name
  e589f685-a84e-4818-aee8-363d6345deae, !- WinterDesignDay Schedule:Day Name
  e589f685-a84e-4818-aee8-363d6345deae, !- CustomDay1 Schedule:Day Name
  e589f685-a84e-4818-aee8-363d6345deae; !- CustomDay2 Schedule:Day Name

Schedule:Week:Daily, CoolAvail_Uhall_0_38,
  846b58e2-839b-41f2-9d04-9d4daf408af0, !- Sunday Schedule:Day Name
  07174647-541f-4974-a7f1-0633f2ed7e0b, !- Monday Schedule:Day Name
  ab9d70c9-feed-43cc-a1ca-82c74ac5aac6, !- Tuesday Schedule:Day Name
  fdad6677-eeb7-48c9-a6c1-936a7f41ad86, !- Wednesday Schedule:Day Name
  13c64a9b-017a-4c70-a607-ce5a9e7dd3fd, !- Thursday Schedule:Day Name
  73687f7e-3e00-4d5f-a7a0-0f2641d9cb89, !- Friday Schedule:Day Name
  22ff2306-5a50-48e3-85ab-f2fed33de9ad, !- Saturday Schedule:Day Name
  846b58e2-839b-41f2-9d04-9d4daf408af0, !- Holiday Schedule:Day Name
  846b58e2-839b-41f2-9d04-9d4daf408af0, !- SummerDesignDay Schedule:Day Name
  846b58e2-839b-41f2-9d04-9d4daf408af0, !- WinterDesignDay Schedule:Day Name
  846b58e2-839b-41f2-9d04-9d4daf408af0, !- CustomDay1 Schedule:Day Name
  846b58e2-839b-41f2-9d04-9d4daf408af0; !- CustomDay2 Schedule:Day Name

Schedule:Week:Daily, CoolAvail_Uhall_0_39,
  fa407cf4-4832-4826-8720-46d485bcae77, !- Sunday Schedule:Day Name
  156e0c7b-1eaf-4df0-9f48-5414e7d6628d, !- Monday Schedule:Day Name
  7b8f0ee8-4ade-426c-8fbe-d5206c386751, !- Tuesday Schedule:Day Name
  a7e8581c-efec-4a9a-9356-f6e272b09e3f, !- Wednesday Schedule:Day Name
  94eb93d3-130e-461e-8785-8ffef0f72ca0, !- Thursday Schedule:Day Name
  b3390f4d-d3f4-4eb7-a936-c38300da486d, !- Friday Schedule:Day Name
  e589f685-a84e-4818-aee8-363d6345deae, !- Saturday Schedule:Day Name
  fa407cf4-4832-4826-8720-46d485bcae77, !- Holiday Schedule:Day Name
  fa407cf4-4832-4826-8720-46d485bcae77, !- SummerDesignDay Schedule:Day Name
  fa407cf4-4832-4826-8720-46d485bcae77, !- WinterDesignDay Schedule:Day Name
  fa407cf4-4832-4826-8720-46d485bcae77, !- CustomDay1 Schedule:Day Name
  fa407cf4-4832-4826-8720-46d485bcae77; !- CustomDay2 Schedule:Day Name

Schedule:Week:Daily, CoolAvail_Uhall_0_40,
  e3c926c1-ab64-47a5-b6c1-cde8f6a3eff9, !- Sunday Schedule:Day Name
  876e857f-4959-494d-b16b-601beafb1ec9, !- Monday Schedule:Day Name
  b657c9e7-afca-4ae8-a33d-938b3d86fdab, !- Tuesday Schedule:Day Name
  99ade35d-b1a4-4347-aa3a-364cd4bf2245, !- Wednesday Schedule:Day Name
  396e36f4-99d6-439f-9333-bd7a06f5599f, !- Thursday Schedule:Day Name
  8a300b51-7f5b-4121-af67-3004d40a0ba0, !- Friday Schedule:Day Name
  b5f8ef1c-e175-4f04-ad3b-50d1e2fd0c38, !- Saturday Schedule:Day Name
  e3c926c1-ab64-47a5-b6c1-cde8f6a3eff9, !- Holiday Schedule:Day Name
  e3c926c1-ab64-47a5-b6c1-cde8f6a3eff9, !- SummerDesignDay Schedule:Day Name
  e3c926c1-ab64-47a5-b6c1-cde8f6a3eff9, !- WinterDesignDay Schedule:Day Name
  e3c926c1-ab64-47a5-b6c1-cde8f6a3eff9, !- CustomDay1 Schedule:Day Name
  e3c926c1-ab64-47a5-b6c1-cde8f6a3eff9; !- CustomDay2 Schedule:Day Name

Schedule:Week:Daily, CoolAvail_Uhall_0_41,
  ea110a93-a8a7-48fb-9a26-a39735e4c26a, !- Sunday Schedule:Day Name
  699edc9a-12e3-47d9-8ab7-0dbe984ce1c0, !- Monday Schedule:Day Name
  aa8c40c5-6c1d-46fd-86f9-c95dc07664db, !- Tuesday Schedule:Day Name
  7f96201e-5005-44d2-910d-170d13ff5579, !- Wednesday Schedule:Day Name
  bc255aef-9901-45d0-8e55-61953f3fa468, !- Thursday Schedule:Day Name
  7231988e-57d6-4459-b775-c103dc271099, !- Friday Schedule:Day Name
  f4f25312-34b6-42cd-8456-3a78661d2827, !- Saturday Schedule:Day Name
  ea110a93-a8a7-48fb-9a26-a39735e4c26a, !- Holiday Schedule:Day Name
  ea110a93-a8a7-48fb-9a26-a39735e4c26a, !- SummerDesignDay Schedule:Day Name
  ea110a93-a8a7-48fb-9a26-a39735e4c26a, !- WinterDesignDay Schedule:Day Name
  ea110a93-a8a7-48fb-9a26-a39735e4c26a, !- CustomDay1 Schedule:Day Name
  ea110a93-a8a7-48fb-9a26-a39735e4c26a; !- CustomDay2 Schedule:Day Name

Schedule:Week:Daily, CoolAvail_Uhall_0_42,
  aa974862-c187-42e8-aa48-ace689d6e0a7, !- Sunday Schedule:Day Name
  8bb454cf-9091-48a1-8fa2-bb9467c1582d, !- Monday Schedule:Day Name
  fb6d8b10-64c6-4768-8def-1ae53cd30cf7, !- Tuesday Schedule:Day Name
  3e10dd48-ad7e-42ca-beae-7cfd3233a09a, !- Wednesday Schedule:Day Name
  2ad3789e-b596-4a6c-b76c-c62c5585e1f8, !- Thursday Schedule:Day Name
  9b26ad11-a201-43fa-a19f-e1e0bf61d2db, !- Friday Schedule:Day Name
  334d533c-fd0b-4512-b939-61f84e1eb9e3, !- Saturday Schedule:Day Name
  aa974862-c187-42e8-aa48-ace689d6e0a7, !- Holiday Schedule:Day Name
  aa974862-c187-42e8-aa48-ace689d6e0a7, !- SummerDesignDay Schedule:Day Name
  aa974862-c187-42e8-aa48-ace689d6e0a7, !- WinterDesignDay Schedule:Day Name
  aa974862-c187-42e8-aa48-ace689d6e0a7, !- CustomDay1 Schedule:Day Name
  aa974862-c187-42e8-aa48-ace689d6e0a7; !- CustomDay2 Schedule:Day Name

Schedule:Week:Daily, CoolAvail_Uhall_0_43,
  f11f1636-b269-4f87-aff8-27aa935bf4b3, !- Sunday Schedule:Day Name
  136ad646-8ec3-4805-849a-e9ef29558a26, !- Monday Schedule:Day Name
  6a7f27cd-f468-4a68-8100-83bf9b7b8bf5, !- Tuesday Schedule:Day Name
  f8fbcafc-a4ec-44cb-9543-f6413bac8f72, !- Wednesday Schedule:Day Name
  57b254bd-a5f7-4dba-b707-0136e4121f7f, !- Thursday Schedule:Day Name
  e6d8b54d-22ea-47ef-b462-662480a5f86f, !- Friday Schedule:Day Name
  3bb82a51-4f6c-4a6f-97fe-e665a4aa5010, !- Saturday Schedule:Day Name
  f11f1636-b269-4f87-aff8-27aa935bf4b3, !- Holiday Schedule:Day Name
  f11f1636-b269-4f87-aff8-27aa935bf4b3, !- SummerDesignDay Schedule:Day Name
  f11f1636-b269-4f87-aff8-27aa935bf4b3, !- WinterDesignDay Schedule:Day Name
  f11f1636-b269-4f87-aff8-27aa935bf4b3, !- CustomDay1 Schedule:Day Name
  f11f1636-b269-4f87-aff8-27aa935bf4b3; !- CustomDay2 Schedule:Day Name

Schedule:Week:Daily, CoolAvail_Uhall_0_44,
  8bff091a-fcc9-41ec-8b7f-395e2fa86ead, !- Sunday Schedule:Day Name
  25042a8d-6a95-4ecf-8721-55ece700b690, !- Monday Schedule:Day Name
  c0a39ba0-22a6-48f2-9603-f38976585fb6, !- Tuesday Schedule:Day Name
  4d63b46f-a2e4-4106-9002-6263c44a7f26, !- Wednesday Schedule:Day Name
  62624d2a-b093-448d-818b-a2770e4de26c, !- Thursday Schedule:Day Name
  ae34816d-fa09-40f2-aeef-f178f9d61306, !- Friday Schedule:Day Name
  303a5f83-3299-448e-8582-a0a791d3c55a, !- Saturday Schedule:Day Name
  8bff091a-fcc9-41ec-8b7f-395e2fa86ead, !- Holiday Schedule:Day Name
  8bff091a-fcc9-41ec-8b7f-395e2fa86ead, !- SummerDesignDay Schedule:Day Name
  8bff091a-fcc9-41ec-8b7f-395e2fa86ead, !- WinterDesignDay Schedule:Day Name
  8bff091a-fcc9-41ec-8b7f-395e2fa86ead, !- CustomDay1 Schedule:Day Name
  8bff091a-fcc9-41ec-8b7f-395e2fa86ead; !- CustomDay2 Schedule:Day Name

Schedule:Week:Daily, CoolAvail_Uhall_0_45,
  170add1a-4e6b-4bc4-a46f-dc19ef3f801b, !- Sunday Schedule:Day Name
  1d82ed7c-05c0-4b74-ae5d-eac78ce218c4, !- Monday Schedule:Day Name
  0c8cbfae-1c65-4d1d-aca7-c0e751a450cf, !- Tuesday Schedule:Day Name
  7746b621-f62f-439d-ae02-4ff435249f25, !- Wednesday Schedule:Day Name
  7b8f0ee8-4ade-426c-8fbe-d5206c386751, !- Thursday Schedule:Day Name
  31543a46-a7a2-4402-9643-570e702bb547, !- Friday Schedule:Day Name
  170add1a-4e6b-4bc4-a46f-dc19ef3f801b, !- Saturday Schedule:Day Name
  170add1a-4e6b-4bc4-a46f-dc19ef3f801b, !- Holiday Schedule:Day Name
  170add1a-4e6b-4bc4-a46f-dc19ef3f801b, !- SummerDesignDay Schedule:Day Name
  170add1a-4e6b-4bc4-a46f-dc19ef3f801b, !- WinterDesignDay Schedule:Day Name
  170add1a-4e6b-4bc4-a46f-dc19ef3f801b, !- CustomDay1 Schedule:Day Name
  170add1a-4e6b-4bc4-a46f-dc19ef3f801b; !- CustomDay2 Schedule:Day Name

Schedule:Week:Daily, CoolAvail_Uhall_0_46,
  aaf1e1fa-7e53-470f-801d-3128046d0bec, !- Sunday Schedule:Day Name
  8bb454cf-9091-48a1-8fa2-bb9467c1582d, !- Monday Schedule:Day Name
  be8e28cc-f7c6-43ef-8a21-5cf6166ca115, !- Tuesday Schedule:Day Name
  b73ce967-46ce-4edc-85e8-febf9f99aa86, !- Wednesday Schedule:Day Name
  b610989e-2758-475f-9f85-ccb0c86ddb02, !- Thursday Schedule:Day Name
  82d0f90d-c65d-44a7-9e74-8d477d8cee77, !- Friday Schedule:Day Name
  89a3181f-b557-4ab6-a07d-6371fc984d98, !- Saturday Schedule:Day Name
  aaf1e1fa-7e53-470f-801d-3128046d0bec, !- Holiday Schedule:Day Name
  aaf1e1fa-7e53-470f-801d-3128046d0bec, !- SummerDesignDay Schedule:Day Name
  aaf1e1fa-7e53-470f-801d-3128046d0bec, !- WinterDesignDay Schedule:Day Name
  aaf1e1fa-7e53-470f-801d-3128046d0bec, !- CustomDay1 Schedule:Day Name
  aaf1e1fa-7e53-470f-801d-3128046d0bec; !- CustomDay2 Schedule:Day Name

Schedule:Week:Daily, CoolAvail_Uhall_0_47,
  38f146cc-59da-4eaa-81e2-e8e668f91803, !- Sunday Schedule:Day Name
  5b1c1975-4151-48e6-9ac6-8ba9c77f3377, !- Monday Schedule:Day Name
  0c48338b-0f44-49a6-a413-403ef1229694, !- Tuesday Schedule:Day Name
  b21f65cc-6db9-41ce-b9b3-661f24a5cef7, !- Wednesday Schedule:Day Name
  d622cf19-3c4d-4d92-be32-7cfa2f02850c, !- Thursday Schedule:Day Name
  a71769e2-206c-44b1-9f6b-b75f0fdc65b7, !- Friday Schedule:Day Name
  8b11b80b-1080-4a83-b137-275c54478cba, !- Saturday Schedule:Day Name
  38f146cc-59da-4eaa-81e2-e8e668f91803, !- Holiday Schedule:Day Name
  38f146cc-59da-4eaa-81e2-e8e668f91803, !- SummerDesignDay Schedule:Day Name
  38f146cc-59da-4eaa-81e2-e8e668f91803, !- WinterDesignDay Schedule:Day Name
  38f146cc-59da-4eaa-81e2-e8e668f91803, !- CustomDay1 Schedule:Day Name
  38f146cc-59da-4eaa-81e2-e8e668f91803; !- CustomDay2 Schedule:Day Name

Schedule:Week:Daily, CoolAvail_Uhall_0_48,
  56469a80-e013-4a92-9f71-e630c50a624b, !- Sunday Schedule:Day Name
  c13edd3c-6abc-4d13-99b2-f0cd3f8531af, !- Monday Schedule:Day Name
  fe588b7b-e3bb-4130-86a5-2bafded251f4, !- Tuesday Schedule:Day Name
  48f8865f-526d-44bb-9988-9b8ac543002f, !- Wednesday Schedule:Day Name
  9543784f-d80a-40e1-b67c-fa366f8e773e, !- Thursday Schedule:Day Name
  8189c87b-fb73-492f-ba1e-3e619645b730, !- Friday Schedule:Day Name
  b96a0f96-60c8-4087-b917-cecf00efb78f, !- Saturday Schedule:Day Name
  56469a80-e013-4a92-9f71-e630c50a624b, !- Holiday Schedule:Day Name
  56469a80-e013-4a92-9f71-e630c50a624b, !- SummerDesignDay Schedule:Day Name
  56469a80-e013-4a92-9f71-e630c50a624b, !- WinterDesignDay Schedule:Day Name
  56469a80-e013-4a92-9f71-e630c50a624b, !- CustomDay1 Schedule:Day Name
  56469a80-e013-4a92-9f71-e630c50a624b; !- CustomDay2 Schedule:Day Name

Schedule:Week:Daily, CoolAvail_Uhall_0_49,
  4250ed1e-f6c4-492f-9a93-31eaa60eeaf2, !- Sunday Schedule:Day Name
  e512527d-2b8d-4b7c-a07a-5fc6b4983035, !- Monday Schedule:Day Name
  0812a75d-8cc2-4e2e-a2a1-db448d9b0435, !- Tuesday Schedule:Day Name
  adbb301d-1f44-4516-ac46-d7cf895459b6, !- Wednesday Schedule:Day Name
  9c8e3532-d700-49d4-9ff1-133c041be157, !- Thursday Schedule:Day Name
  6d1f6ef8-28d9-4efa-836f-79dbe2c9a36d, !- Friday Schedule:Day Name
  96fcb3aa-37ba-4f07-9de2-6795088a92d4, !- Saturday Schedule:Day Name
  4250ed1e-f6c4-492f-9a93-31eaa60eeaf2, !- Holiday Schedule:Day Name
  4250ed1e-f6c4-492f-9a93-31eaa60eeaf2, !- SummerDesignDay Schedule:Day Name
  4250ed1e-f6c4-492f-9a93-31eaa60eeaf2, !- WinterDesignDay Schedule:Day Name
  4250ed1e-f6c4-492f-9a93-31eaa60eeaf2, !- CustomDay1 Schedule:Day Name
  4250ed1e-f6c4-492f-9a93-31eaa60eeaf2; !- CustomDay2 Schedule:Day Name

Schedule:Week:Daily, CoolAvail_Uhall_0_50,
  7904f1b2-d521-44ed-bbdf-6285749ec256, !- Sunday Schedule:Day Name
  b657c9e7-afca-4ae8-a33d-938b3d86fdab, !- Monday Schedule:Day Name
  97285481-3ed5-409f-8473-52abdef88083, !- Tuesday Schedule:Day Name
  2258e41e-dced-4f4e-8afe-0ba8e83b7f2a, !- Wednesday Schedule:Day Name
  9af88808-9c1e-49e8-9cd4-60bb524454be, !- Thursday Schedule:Day Name
  b6af22a2-ebc6-49fc-93c6-3f74d9213b32, !- Friday Schedule:Day Name
  853783de-594a-4ca5-839f-67888f320912, !- Saturday Schedule:Day Name
  7904f1b2-d521-44ed-bbdf-6285749ec256, !- Holiday Schedule:Day Name
  7904f1b2-d521-44ed-bbdf-6285749ec256, !- SummerDesignDay Schedule:Day Name
  7904f1b2-d521-44ed-bbdf-6285749ec256, !- WinterDesignDay Schedule:Day Name
  7904f1b2-d521-44ed-bbdf-6285749ec256, !- CustomDay1 Schedule:Day Name
  7904f1b2-d521-44ed-bbdf-6285749ec256; !- CustomDay2 Schedule:Day Name

Schedule:Week:Daily, CoolAvail_Uhall_0_51,
  86c57143-ffed-4de5-b267-bbec8844d14e, !- Sunday Schedule:Day Name
  8db33876-b01f-445c-bbda-69fa527fc7fc, !- Monday Schedule:Day Name
  99cdd683-29cf-42e6-a1ab-6bc93bd9379a, !- Tuesday Schedule:Day Name
  f853c6d1-c679-45db-a18b-ef365238a26a, !- Wednesday Schedule:Day Name
  e4086513-5e96-4223-bd2c-a2ea429b8da7, !- Thursday Schedule:Day Name
  b149aa5f-44e4-4c6e-bea9-ae0ec9cfe6cc, !- Friday Schedule:Day Name
  fe0c08fd-7af7-435e-b2c1-ca638bd41060, !- Saturday Schedule:Day Name
  86c57143-ffed-4de5-b267-bbec8844d14e, !- Holiday Schedule:Day Name
  86c57143-ffed-4de5-b267-bbec8844d14e, !- SummerDesignDay Schedule:Day Name
  86c57143-ffed-4de5-b267-bbec8844d14e, !- WinterDesignDay Schedule:Day Name
  86c57143-ffed-4de5-b267-bbec8844d14e, !- CustomDay1 Schedule:Day Name
  86c57143-ffed-4de5-b267-bbec8844d14e; !- CustomDay2 Schedule:Day Name

Schedule:Week:Daily, CoolAvail_Uhall_0_52,
  fd4a921d-8031-40be-b9cd-2fede9e5bcd7, !- Sunday Schedule:Day Name
  fd4a921d-8031-40be-b9cd-2fede9e5bcd7, !- Monday Schedule:Day Name
  fd4a921d-8031-40be-b9cd-2fede9e5bcd7, !- Tuesday Schedule:Day Name
  fd4a921d-8031-40be-b9cd-2fede9e5bcd7, !- Wednesday Schedule:Day Name
  fd4a921d-8031-40be-b9cd-2fede9e5bcd7, !- Thursday Schedule:Day Name
  fd4a921d-8031-40be-b9cd-2fede9e5bcd7, !- Friday Schedule:Day Name
  fd4a921d-8031-40be-b9cd-2fede9e5bcd7, !- Saturday Schedule:Day Name
  fd4a921d-8031-40be-b9cd-2fede9e5bcd7, !- Holiday Schedule:Day Name
  fd4a921d-8031-40be-b9cd-2fede9e5bcd7, !- SummerDesignDay Schedule:Day Name
  fd4a921d-8031-40be-b9cd-2fede9e5bcd7, !- WinterDesignDay Schedule:Day Name
  fd4a921d-8031-40be-b9cd-2fede9e5bcd7, !- CustomDay1 Schedule:Day Name
  fd4a921d-8031-40be-b9cd-2fede9e5bcd7; !- CustomDay2 Schedule:Day Name


Schedule:Year,MechVentAvail_Uhall_0,
Fraction,
MechVentAvail_Uhall_0_0,1,1,1,7, 
MechVentAvail_Uhall_0_1,1,8,1,14, 
MechVentAvail_Uhall_0_2,1,15,1,21, 
MechVentAvail_Uhall_0_3,1,22,1,28, 
MechVentAvail_Uhall_0_4,1,29,2,4, 
MechVentAvail_Uhall_0_5,2,5,2,11, 
MechVentAvail_Uhall_0_6,2,12,2,18, 
MechVentAvail_Uhall_0_7,2,19,2,25, 
MechVentAvail_Uhall_0_8,2,26,3,4, 
MechVentAvail_Uhall_0_9,3,5,3,11, 
MechVentAvail_Uhall_0_10,3,12,3,18, 
MechVentAvail_Uhall_0_11,3,19,3,25, 
MechVentAvail_Uhall_0_12,3,26,4,1, 
MechVentAvail_Uhall_0_13,4,2,4,8, 
MechVentAvail_Uhall_0_14,4,9,4,15, 
MechVentAvail_Uhall_0_15,4,16,4,22, 
MechVentAvail_Uhall_0_16,4,23,4,29, 
MechVentAvail_Uhall_0_17,4,30,5,6, 
MechVentAvail_Uhall_0_18,5,7,5,13, 
MechVentAvail_Uhall_0_19,5,14,5,20, 
MechVentAvail_Uhall_0_20,5,21,5,27, 
MechVentAvail_Uhall_0_21,5,28,6,3, 
MechVentAvail_Uhall_0_22,6,4,6,10, 
MechVentAvail_Uhall_0_23,6,11,6,17, 
MechVentAvail_Uhall_0_24,6,18,6,24, 
MechVentAvail_Uhall_0_25,6,25,7,1, 
MechVentAvail_Uhall_0_26,7,2,7,8, 
MechVentAvail_Uhall_0_27,7,9,7,15, 
MechVentAvail_Uhall_0_28,7,16,7,22, 
MechVentAvail_Uhall_0_29,7,23,7,29, 
MechVentAvail_Uhall_0_30,7,30,8,5, 
MechVentAvail_Uhall_0_31,8,6,8,12, 
MechVentAvail_Uhall_0_32,8,13,8,19, 
MechVentAvail_Uhall_0_33,8,20,8,26, 
MechVentAvail_Uhall_0_34,8,27,9,2, 
MechVentAvail_Uhall_0_35,9,3,9,9, 
MechVentAvail_Uhall_0_36,9,10,9,16, 
MechVentAvail_Uhall_0_37,9,17,9,23, 
MechVentAvail_Uhall_0_38,9,24,9,30, 
MechVentAvail_Uhall_0_39,10,1,10,7, 
MechVentAvail_Uhall_0_40,10,8,10,14, 
MechVentAvail_Uhall_0_41,10,15,10,21, 
MechVentAvail_Uhall_0_42,10,22,10,28, 
MechVentAvail_Uhall_0_43,10,29,11,4, 
MechVentAvail_Uhall_0_44,11,5,11,11, 
MechVentAvail_Uhall_0_45,11,12,11,18, 
MechVentAvail_Uhall_0_46,11,19,11,25, 
MechVentAvail_Uhall_0_47,11,26,12,2, 
MechVentAvail_Uhall_0_48,12,3,12,9, 
MechVentAvail_Uhall_0_49,12,10,12,16, 
MechVentAvail_Uhall_0_50,12,17,12,23, 
MechVentAvail_Uhall_0_51,12,24,12,30, 
MechVentAvail_Uhall_0_52,12,31,12,31;

Schedule:Week:Daily, MechVentAvail_Uhall_0_0,
  41e3706f-bfd9-475a-a1c9-97befab7e728, !- Sunday Schedule:Day Name
  003c1343-9910-4965-afdd-74b0b1b28fbc, !- Monday Schedule:Day Name
  592fde84-3739-4fcd-9dbb-e82d49b38008, !- Tuesday Schedule:Day Name
  c7d6d40d-0525-452e-b572-e7be6537316a, !- Wednesday Schedule:Day Name
  a67115f7-0c0f-4c55-8e0f-8c1563bca754, !- Thursday Schedule:Day Name
  194f9090-8a79-4b3e-b2cb-84600edd803d, !- Friday Schedule:Day Name
  fdb4c805-b148-45b7-8a80-2cfb62477cf0, !- Saturday Schedule:Day Name
  41e3706f-bfd9-475a-a1c9-97befab7e728, !- Holiday Schedule:Day Name
  41e3706f-bfd9-475a-a1c9-97befab7e728, !- SummerDesignDay Schedule:Day Name
  41e3706f-bfd9-475a-a1c9-97befab7e728, !- WinterDesignDay Schedule:Day Name
  41e3706f-bfd9-475a-a1c9-97befab7e728, !- CustomDay1 Schedule:Day Name
  41e3706f-bfd9-475a-a1c9-97befab7e728; !- CustomDay2 Schedule:Day Name

Schedule:Week:Daily, MechVentAvail_Uhall_0_1,
  db07ce6c-1d0b-40f1-9724-6f7446501cfa, !- Sunday Schedule:Day Name
  2ef58c4e-7782-433d-b245-3dfc69d2d938, !- Monday Schedule:Day Name
  8554aa95-b668-4dca-a63c-ef558b6840aa, !- Tuesday Schedule:Day Name
  f2ee4175-6857-4605-9cf5-0d689a499c7e, !- Wednesday Schedule:Day Name
  77121a80-c25f-4aee-a029-030d4ae72bd5, !- Thursday Schedule:Day Name
  fffc3896-25cf-44af-94cd-55cf098dfa24, !- Friday Schedule:Day Name
  149ccc56-7a22-414c-9f75-6d599b7fdbc0, !- Saturday Schedule:Day Name
  db07ce6c-1d0b-40f1-9724-6f7446501cfa, !- Holiday Schedule:Day Name
  db07ce6c-1d0b-40f1-9724-6f7446501cfa, !- SummerDesignDay Schedule:Day Name
  db07ce6c-1d0b-40f1-9724-6f7446501cfa, !- WinterDesignDay Schedule:Day Name
  db07ce6c-1d0b-40f1-9724-6f7446501cfa, !- CustomDay1 Schedule:Day Name
  db07ce6c-1d0b-40f1-9724-6f7446501cfa; !- CustomDay2 Schedule:Day Name

Schedule:Week:Daily, MechVentAvail_Uhall_0_2,
  7c6f2c83-bb2d-4e27-9aec-c8de8118fafc, !- Sunday Schedule:Day Name
  a3f53767-956a-4abc-8ccb-cce3d777838f, !- Monday Schedule:Day Name
  77121a80-c25f-4aee-a029-030d4ae72bd5, !- Tuesday Schedule:Day Name
  b1e451ea-7f95-4729-8564-cad973b34af2, !- Wednesday Schedule:Day Name
  003c1343-9910-4965-afdd-74b0b1b28fbc, !- Thursday Schedule:Day Name
  d85c2b70-7dd5-425e-834c-41bbc1fc5abe, !- Friday Schedule:Day Name
  32c04440-bd43-4dae-8e45-5b77bce29465, !- Saturday Schedule:Day Name
  7c6f2c83-bb2d-4e27-9aec-c8de8118fafc, !- Holiday Schedule:Day Name
  7c6f2c83-bb2d-4e27-9aec-c8de8118fafc, !- SummerDesignDay Schedule:Day Name
  7c6f2c83-bb2d-4e27-9aec-c8de8118fafc, !- WinterDesignDay Schedule:Day Name
  7c6f2c83-bb2d-4e27-9aec-c8de8118fafc, !- CustomDay1 Schedule:Day Name
  7c6f2c83-bb2d-4e27-9aec-c8de8118fafc; !- CustomDay2 Schedule:Day Name

Schedule:Week:Daily, MechVentAvail_Uhall_0_3,
  fc0c8862-1914-459e-ac44-f57620b0de64, !- Sunday Schedule:Day Name
  43b29f55-281e-49cd-b712-60673e09300b, !- Monday Schedule:Day Name
  bc2b132b-3301-4997-a409-8251784d9710, !- Tuesday Schedule:Day Name
  a3b6eae0-cd16-4146-a72c-33d93536b6d5, !- Wednesday Schedule:Day Name
  a297b178-5400-48e8-8c2b-5383d49696c1, !- Thursday Schedule:Day Name
  41e3706f-bfd9-475a-a1c9-97befab7e728, !- Friday Schedule:Day Name
  0bd720d0-16f9-43d1-8c99-a7f570c083cc, !- Saturday Schedule:Day Name
  fc0c8862-1914-459e-ac44-f57620b0de64, !- Holiday Schedule:Day Name
  fc0c8862-1914-459e-ac44-f57620b0de64, !- SummerDesignDay Schedule:Day Name
  fc0c8862-1914-459e-ac44-f57620b0de64, !- WinterDesignDay Schedule:Day Name
  fc0c8862-1914-459e-ac44-f57620b0de64, !- CustomDay1 Schedule:Day Name
  fc0c8862-1914-459e-ac44-f57620b0de64; !- CustomDay2 Schedule:Day Name

Schedule:Week:Daily, MechVentAvail_Uhall_0_4,
  34931478-d65c-4a1a-80c3-ffcafce02f3b, !- Sunday Schedule:Day Name
  0be8be69-e262-4302-bc3f-879d800dc5b3, !- Monday Schedule:Day Name
  393e0f77-cf9c-4917-a52e-2c18a27275d3, !- Tuesday Schedule:Day Name
  ec5d5c53-5788-4abc-8180-0154a594163a, !- Wednesday Schedule:Day Name
  1c7e563f-1008-46b0-a08b-5b2059d839fd, !- Thursday Schedule:Day Name
  25d9ae31-c511-4500-9310-47b36bc8755f, !- Friday Schedule:Day Name
  0be8be69-e262-4302-bc3f-879d800dc5b3, !- Saturday Schedule:Day Name
  34931478-d65c-4a1a-80c3-ffcafce02f3b, !- Holiday Schedule:Day Name
  34931478-d65c-4a1a-80c3-ffcafce02f3b, !- SummerDesignDay Schedule:Day Name
  34931478-d65c-4a1a-80c3-ffcafce02f3b, !- WinterDesignDay Schedule:Day Name
  34931478-d65c-4a1a-80c3-ffcafce02f3b, !- CustomDay1 Schedule:Day Name
  34931478-d65c-4a1a-80c3-ffcafce02f3b; !- CustomDay2 Schedule:Day Name

Schedule:Week:Daily, MechVentAvail_Uhall_0_5,
  328c9e66-c026-4f7c-941e-35b09cce5eaf, !- Sunday Schedule:Day Name
  0bcc7613-16c7-4f50-b4d0-f3000df73108, !- Monday Schedule:Day Name
  95e1dacb-4847-45bb-8ff6-329f5872c8ae, !- Tuesday Schedule:Day Name
  a368cf70-1db9-4d2f-addf-36a33630691f, !- Wednesday Schedule:Day Name
  cfd69087-4443-4d2d-83c7-c51484c2fd0f, !- Thursday Schedule:Day Name
  eaea7ef1-044b-4db2-9232-ebc82cdee0b3, !- Friday Schedule:Day Name
  e92e06b3-11b9-4b8d-8aab-264918818f6d, !- Saturday Schedule:Day Name
  328c9e66-c026-4f7c-941e-35b09cce5eaf, !- Holiday Schedule:Day Name
  328c9e66-c026-4f7c-941e-35b09cce5eaf, !- SummerDesignDay Schedule:Day Name
  328c9e66-c026-4f7c-941e-35b09cce5eaf, !- WinterDesignDay Schedule:Day Name
  328c9e66-c026-4f7c-941e-35b09cce5eaf, !- CustomDay1 Schedule:Day Name
  328c9e66-c026-4f7c-941e-35b09cce5eaf; !- CustomDay2 Schedule:Day Name

Schedule:Week:Daily, MechVentAvail_Uhall_0_6,
  9028a64a-fa1d-4ac5-ba6b-f5c559afd600, !- Sunday Schedule:Day Name
  e5ca6391-3192-4c0e-8131-34b922f7b05b, !- Monday Schedule:Day Name
  8a7d1130-7860-4e5d-9136-6d20c174eaa8, !- Tuesday Schedule:Day Name
  10834950-445a-4d6c-86dc-96d8ef2e6718, !- Wednesday Schedule:Day Name
  0af50177-0b11-49a9-aba1-fc396bc8b445, !- Thursday Schedule:Day Name
  cb927db4-a6bb-4d7f-b4ff-91dc8e4b721c, !- Friday Schedule:Day Name
  43a85af4-5db7-43c8-b0b0-0cfb932f600b, !- Saturday Schedule:Day Name
  9028a64a-fa1d-4ac5-ba6b-f5c559afd600, !- Holiday Schedule:Day Name
  9028a64a-fa1d-4ac5-ba6b-f5c559afd600, !- SummerDesignDay Schedule:Day Name
  9028a64a-fa1d-4ac5-ba6b-f5c559afd600, !- WinterDesignDay Schedule:Day Name
  9028a64a-fa1d-4ac5-ba6b-f5c559afd600, !- CustomDay1 Schedule:Day Name
  9028a64a-fa1d-4ac5-ba6b-f5c559afd600; !- CustomDay2 Schedule:Day Name

Schedule:Week:Daily, MechVentAvail_Uhall_0_7,
  bea93d85-fc23-433c-a16f-b5a2a5c822be, !- Sunday Schedule:Day Name
  db693b62-aad0-4b69-a419-fa5af28b9cf3, !- Monday Schedule:Day Name
  a7c11301-8e18-412d-a485-a5004bdc39de, !- Tuesday Schedule:Day Name
  d241b76a-ac68-4807-ab79-8a768b6f61a7, !- Wednesday Schedule:Day Name
  5369e767-0d8e-4b32-8cd4-c346fa9b5939, !- Thursday Schedule:Day Name
  f7156fc8-91b6-48a4-9085-4e32a69e2b1a, !- Friday Schedule:Day Name
  35fda236-6921-48e6-9830-098c5263a011, !- Saturday Schedule:Day Name
  bea93d85-fc23-433c-a16f-b5a2a5c822be, !- Holiday Schedule:Day Name
  bea93d85-fc23-433c-a16f-b5a2a5c822be, !- SummerDesignDay Schedule:Day Name
  bea93d85-fc23-433c-a16f-b5a2a5c822be, !- WinterDesignDay Schedule:Day Name
  bea93d85-fc23-433c-a16f-b5a2a5c822be, !- CustomDay1 Schedule:Day Name
  bea93d85-fc23-433c-a16f-b5a2a5c822be; !- CustomDay2 Schedule:Day Name

Schedule:Week:Daily, MechVentAvail_Uhall_0_8,
  fd62cacc-abe7-44f2-8770-210d11e35613, !- Sunday Schedule:Day Name
  7ee65adc-2d17-47fb-89dd-ade89af1af84, !- Monday Schedule:Day Name
  c0654989-8f39-4b18-864e-eb22d4a3342d, !- Tuesday Schedule:Day Name
  23d9486e-cd81-49e8-b8ac-7b3449a86746, !- Wednesday Schedule:Day Name
  5f4d8d22-0120-4d1b-a6b7-a035c5265ab1, !- Thursday Schedule:Day Name
  674b06d3-b604-48ea-86a4-add5b25dbf48, !- Friday Schedule:Day Name
  1d82ed7c-05c0-4b74-ae5d-eac78ce218c4, !- Saturday Schedule:Day Name
  fd62cacc-abe7-44f2-8770-210d11e35613, !- Holiday Schedule:Day Name
  fd62cacc-abe7-44f2-8770-210d11e35613, !- SummerDesignDay Schedule:Day Name
  fd62cacc-abe7-44f2-8770-210d11e35613, !- WinterDesignDay Schedule:Day Name
  fd62cacc-abe7-44f2-8770-210d11e35613, !- CustomDay1 Schedule:Day Name
  fd62cacc-abe7-44f2-8770-210d11e35613; !- CustomDay2 Schedule:Day Name

Schedule:Week:Daily, MechVentAvail_Uhall_0_9,
  0e1ef495-01ff-4a26-b207-13c7c6a3d751, !- Sunday Schedule:Day Name
  0a4c2ba7-d084-4828-9f66-3e72c7ca00d1, !- Monday Schedule:Day Name
  1d82ed7c-05c0-4b74-ae5d-eac78ce218c4, !- Tuesday Schedule:Day Name
  165a3cea-29f3-4c38-8ee1-088ed4f1a1f9, !- Wednesday Schedule:Day Name
  bca71fbe-a804-43d9-82c7-7b29d92ffc62, !- Thursday Schedule:Day Name
  8779e041-43cc-4635-9be7-dc18ccee0d4f, !- Friday Schedule:Day Name
  e2581a7b-43c2-4a59-aa58-16e064d3d041, !- Saturday Schedule:Day Name
  0e1ef495-01ff-4a26-b207-13c7c6a3d751, !- Holiday Schedule:Day Name
  0e1ef495-01ff-4a26-b207-13c7c6a3d751, !- SummerDesignDay Schedule:Day Name
  0e1ef495-01ff-4a26-b207-13c7c6a3d751, !- WinterDesignDay Schedule:Day Name
  0e1ef495-01ff-4a26-b207-13c7c6a3d751, !- CustomDay1 Schedule:Day Name
  0e1ef495-01ff-4a26-b207-13c7c6a3d751; !- CustomDay2 Schedule:Day Name

Schedule:Week:Daily, MechVentAvail_Uhall_0_10,
  6c68c950-6354-4773-92b4-119c0da3ab9c, !- Sunday Schedule:Day Name
  1d82ed7c-05c0-4b74-ae5d-eac78ce218c4, !- Monday Schedule:Day Name
  d043911a-a4e4-4a07-b4eb-d4b02cd2e68c, !- Tuesday Schedule:Day Name
  0054b859-2743-4922-be13-5121baa5f1fc, !- Wednesday Schedule:Day Name
  d57da6fb-427e-400c-902e-f2079f1c96f6, !- Thursday Schedule:Day Name
  24eab098-ccec-4794-8b70-b730c65f53b9, !- Friday Schedule:Day Name
  e458a064-98d4-4dda-8a7b-4235616c96f6, !- Saturday Schedule:Day Name
  6c68c950-6354-4773-92b4-119c0da3ab9c, !- Holiday Schedule:Day Name
  6c68c950-6354-4773-92b4-119c0da3ab9c, !- SummerDesignDay Schedule:Day Name
  6c68c950-6354-4773-92b4-119c0da3ab9c, !- WinterDesignDay Schedule:Day Name
  6c68c950-6354-4773-92b4-119c0da3ab9c, !- CustomDay1 Schedule:Day Name
  6c68c950-6354-4773-92b4-119c0da3ab9c; !- CustomDay2 Schedule:Day Name

Schedule:Week:Daily, MechVentAvail_Uhall_0_11,
  1d82ed7c-05c0-4b74-ae5d-eac78ce218c4, !- Sunday Schedule:Day Name
  1dd2a086-aa54-43d9-8216-67f41470d57f, !- Monday Schedule:Day Name
  7db43608-da88-4c74-9608-fe96a58b802d, !- Tuesday Schedule:Day Name
  d081e0ff-e50c-4c41-94dc-eb66605a89d4, !- Wednesday Schedule:Day Name
  41d41c44-63b3-4d16-ae11-5af6e43e17b0, !- Thursday Schedule:Day Name
  c43bcfc8-d056-4e56-be7d-fce85ea835ef, !- Friday Schedule:Day Name
  9505b86a-ae0c-4c3f-bbab-e2abc7e9cd5e, !- Saturday Schedule:Day Name
  1d82ed7c-05c0-4b74-ae5d-eac78ce218c4, !- Holiday Schedule:Day Name
  1d82ed7c-05c0-4b74-ae5d-eac78ce218c4, !- SummerDesignDay Schedule:Day Name
  1d82ed7c-05c0-4b74-ae5d-eac78ce218c4, !- WinterDesignDay Schedule:Day Name
  1d82ed7c-05c0-4b74-ae5d-eac78ce218c4, !- CustomDay1 Schedule:Day Name
  1d82ed7c-05c0-4b74-ae5d-eac78ce218c4; !- CustomDay2 Schedule:Day Name

Schedule:Week:Daily, MechVentAvail_Uhall_0_12,
  07f88278-11cf-423e-9762-aa66966af8c8, !- Sunday Schedule:Day Name
  736c379e-de2b-405b-ab38-5d560375cccc, !- Monday Schedule:Day Name
  15e9c3dd-f94b-46ad-94c2-7e84793e8880, !- Tuesday Schedule:Day Name
  f8150d4e-54ab-47d6-8b5e-4338ca9fef7d, !- Wednesday Schedule:Day Name
  cc2d64af-ed4f-4791-9c5b-00e883829291, !- Thursday Schedule:Day Name
  455044cb-f37e-440c-9569-b0253388d59d, !- Friday Schedule:Day Name
  8dde9b7d-4ffc-4661-b186-eec473e4b3fb, !- Saturday Schedule:Day Name
  07f88278-11cf-423e-9762-aa66966af8c8, !- Holiday Schedule:Day Name
  07f88278-11cf-423e-9762-aa66966af8c8, !- SummerDesignDay Schedule:Day Name
  07f88278-11cf-423e-9762-aa66966af8c8, !- WinterDesignDay Schedule:Day Name
  07f88278-11cf-423e-9762-aa66966af8c8, !- CustomDay1 Schedule:Day Name
  07f88278-11cf-423e-9762-aa66966af8c8; !- CustomDay2 Schedule:Day Name

Schedule:Week:Daily, MechVentAvail_Uhall_0_13,
  c08be0c4-fcfa-406c-abdd-96a7b03b8551, !- Sunday Schedule:Day Name
  cb14452f-51dd-48e2-99e8-3dfb1e8afad8, !- Monday Schedule:Day Name
  505a70fc-b842-411e-897e-ccfe53d96d7b, !- Tuesday Schedule:Day Name
  4674d4ad-ae5e-4b79-a76a-2395b75afc9a, !- Wednesday Schedule:Day Name
  4f1f9660-3ca3-4c6a-a42a-adf5a542d551, !- Thursday Schedule:Day Name
  0a821289-0550-470a-96e4-e78c7fa47668, !- Friday Schedule:Day Name
  9efa68b0-563c-4c22-8c0a-f95819fc4dfa, !- Saturday Schedule:Day Name
  c08be0c4-fcfa-406c-abdd-96a7b03b8551, !- Holiday Schedule:Day Name
  c08be0c4-fcfa-406c-abdd-96a7b03b8551, !- SummerDesignDay Schedule:Day Name
  c08be0c4-fcfa-406c-abdd-96a7b03b8551, !- WinterDesignDay Schedule:Day Name
  c08be0c4-fcfa-406c-abdd-96a7b03b8551, !- CustomDay1 Schedule:Day Name
  c08be0c4-fcfa-406c-abdd-96a7b03b8551; !- CustomDay2 Schedule:Day Name

Schedule:Week:Daily, MechVentAvail_Uhall_0_14,
  f9308e66-c808-4c21-b694-b1e3117985f1, !- Sunday Schedule:Day Name
  e362bb62-e392-4f98-89a4-c7616ee0da78, !- Monday Schedule:Day Name
  bdf4e634-f655-46b8-bb46-530eedc0b97c, !- Tuesday Schedule:Day Name
  6a83668f-6a61-4c04-9981-e358ef47ac49, !- Wednesday Schedule:Day Name
  3ba98dbe-32cd-4081-9a77-954be1298001, !- Thursday Schedule:Day Name
  3d6d7624-3e5b-4558-a5ed-ea13f6046ad1, !- Friday Schedule:Day Name
  61d646ef-99a8-40fd-8593-29998eb71547, !- Saturday Schedule:Day Name
  f9308e66-c808-4c21-b694-b1e3117985f1, !- Holiday Schedule:Day Name
  f9308e66-c808-4c21-b694-b1e3117985f1, !- SummerDesignDay Schedule:Day Name
  f9308e66-c808-4c21-b694-b1e3117985f1, !- WinterDesignDay Schedule:Day Name
  f9308e66-c808-4c21-b694-b1e3117985f1, !- CustomDay1 Schedule:Day Name
  f9308e66-c808-4c21-b694-b1e3117985f1; !- CustomDay2 Schedule:Day Name

Schedule:Week:Daily, MechVentAvail_Uhall_0_15,
  ed082062-79aa-4376-9da4-cbc792f80ecc, !- Sunday Schedule:Day Name
  feebe028-c72b-4222-9db5-db50b9d0df7c, !- Monday Schedule:Day Name
  68b4197a-0a3c-45c0-aedb-0df11bae7eae, !- Tuesday Schedule:Day Name
  43ce78f5-0925-4cd2-8616-c9d19e1a19c7, !- Wednesday Schedule:Day Name
  5755456c-06a8-49fc-972e-33671b8ae1b7, !- Thursday Schedule:Day Name
  5200658d-c955-470e-95e0-ef04002790a9, !- Friday Schedule:Day Name
  498a6981-8755-461b-a987-a16443a03934, !- Saturday Schedule:Day Name
  ed082062-79aa-4376-9da4-cbc792f80ecc, !- Holiday Schedule:Day Name
  ed082062-79aa-4376-9da4-cbc792f80ecc, !- SummerDesignDay Schedule:Day Name
  ed082062-79aa-4376-9da4-cbc792f80ecc, !- WinterDesignDay Schedule:Day Name
  ed082062-79aa-4376-9da4-cbc792f80ecc, !- CustomDay1 Schedule:Day Name
  ed082062-79aa-4376-9da4-cbc792f80ecc; !- CustomDay2 Schedule:Day Name

Schedule:Week:Daily, MechVentAvail_Uhall_0_16,
  454ad031-8e21-49a2-a97a-4076dc712759, !- Sunday Schedule:Day Name
  db00bee3-6bf5-4e51-860b-7654a3651c02, !- Monday Schedule:Day Name
  a13aa85a-000d-465c-a9a8-7c2b2f731fb1, !- Tuesday Schedule:Day Name
  b3e65846-52eb-4956-9420-03c2995b8da9, !- Wednesday Schedule:Day Name
  20378aa8-d61a-4f74-91d5-683cd33f14d5, !- Thursday Schedule:Day Name
  fad559f8-ab1f-4fb4-ae5d-f9fc2a055e9e, !- Friday Schedule:Day Name
  4a4370d5-d342-4cee-ac74-5d9edba1a746, !- Saturday Schedule:Day Name
  454ad031-8e21-49a2-a97a-4076dc712759, !- Holiday Schedule:Day Name
  454ad031-8e21-49a2-a97a-4076dc712759, !- SummerDesignDay Schedule:Day Name
  454ad031-8e21-49a2-a97a-4076dc712759, !- WinterDesignDay Schedule:Day Name
  454ad031-8e21-49a2-a97a-4076dc712759, !- CustomDay1 Schedule:Day Name
  454ad031-8e21-49a2-a97a-4076dc712759; !- CustomDay2 Schedule:Day Name

Schedule:Week:Daily, MechVentAvail_Uhall_0_17,
  6592fa1c-f5c6-49ea-82db-1ad3efec4262, !- Sunday Schedule:Day Name
  3475fa83-0e1f-4ab1-b220-799a4c7799d6, !- Monday Schedule:Day Name
  4020d7ec-4854-4dc2-acbd-a5153dbbd921, !- Tuesday Schedule:Day Name
  e589f685-a84e-4818-aee8-363d6345deae, !- Wednesday Schedule:Day Name
  1c53175b-d2d7-4a58-ab36-0fb8bf22b624, !- Thursday Schedule:Day Name
  b7f6722b-7e15-44fc-a5b6-c7948cf2828b, !- Friday Schedule:Day Name
  cdbf392b-ad92-429b-8fa1-e90a48041854, !- Saturday Schedule:Day Name
  6592fa1c-f5c6-49ea-82db-1ad3efec4262, !- Holiday Schedule:Day Name
  6592fa1c-f5c6-49ea-82db-1ad3efec4262, !- SummerDesignDay Schedule:Day Name
  6592fa1c-f5c6-49ea-82db-1ad3efec4262, !- WinterDesignDay Schedule:Day Name
  6592fa1c-f5c6-49ea-82db-1ad3efec4262, !- CustomDay1 Schedule:Day Name
  6592fa1c-f5c6-49ea-82db-1ad3efec4262; !- CustomDay2 Schedule:Day Name

Schedule:Week:Daily, MechVentAvail_Uhall_0_18,
  aa9000a8-7474-43d7-afaa-83856b8bd1f2, !- Sunday Schedule:Day Name
  4ec5bce3-6218-4115-b27d-d4e593f8f2d8, !- Monday Schedule:Day Name
  492b02ff-45e8-4ae6-bd06-09335d1ef1e6, !- Tuesday Schedule:Day Name
  aa9000a8-7474-43d7-afaa-83856b8bd1f2, !- Wednesday Schedule:Day Name
  b22414ec-ceea-47c7-9d2f-369ee415b721, !- Thursday Schedule:Day Name
  a24abd1d-2bfc-4427-b543-e2912398e3db, !- Friday Schedule:Day Name
  3c386093-14a7-4751-8f54-93ff7cfd9247, !- Saturday Schedule:Day Name
  aa9000a8-7474-43d7-afaa-83856b8bd1f2, !- Holiday Schedule:Day Name
  aa9000a8-7474-43d7-afaa-83856b8bd1f2, !- SummerDesignDay Schedule:Day Name
  aa9000a8-7474-43d7-afaa-83856b8bd1f2, !- WinterDesignDay Schedule:Day Name
  aa9000a8-7474-43d7-afaa-83856b8bd1f2, !- CustomDay1 Schedule:Day Name
  aa9000a8-7474-43d7-afaa-83856b8bd1f2; !- CustomDay2 Schedule:Day Name

Schedule:Week:Daily, MechVentAvail_Uhall_0_19,
  47df9d88-b14f-43eb-9254-53089a199fba, !- Sunday Schedule:Day Name
  e568a799-18e5-40c9-9397-6138e3e6018b, !- Monday Schedule:Day Name
  a512e456-9579-4a72-9781-54939057d925, !- Tuesday Schedule:Day Name
  ee3fc8ae-8142-4afc-9e43-1875c9e7ea1e, !- Wednesday Schedule:Day Name
  e48a7c3a-0cbb-48f7-875c-b42f9bf48bb6, !- Thursday Schedule:Day Name
  0fb08f27-7588-4a44-9de1-21b786adba81, !- Friday Schedule:Day Name
  f1e54837-410d-46ad-9285-927ae60d0b4c, !- Saturday Schedule:Day Name
  47df9d88-b14f-43eb-9254-53089a199fba, !- Holiday Schedule:Day Name
  47df9d88-b14f-43eb-9254-53089a199fba, !- SummerDesignDay Schedule:Day Name
  47df9d88-b14f-43eb-9254-53089a199fba, !- WinterDesignDay Schedule:Day Name
  47df9d88-b14f-43eb-9254-53089a199fba, !- CustomDay1 Schedule:Day Name
  47df9d88-b14f-43eb-9254-53089a199fba; !- CustomDay2 Schedule:Day Name

Schedule:Week:Daily, MechVentAvail_Uhall_0_20,
  257b40ab-5645-4009-97af-efade599dc77, !- Sunday Schedule:Day Name
  5e2766cb-6e55-4f57-8b2d-2d50a1cd2cf9, !- Monday Schedule:Day Name
  47df9d88-b14f-43eb-9254-53089a199fba, !- Tuesday Schedule:Day Name
  d7e7454e-0c62-4fb5-abbb-e8e4b7720e89, !- Wednesday Schedule:Day Name
  de3e5bea-eef4-4964-afd3-3b062cac8df1, !- Thursday Schedule:Day Name
  50dfb5bd-6346-4189-aae5-ad157768b46a, !- Friday Schedule:Day Name
  5db1a842-f249-474b-81c4-4e124656ecfc, !- Saturday Schedule:Day Name
  257b40ab-5645-4009-97af-efade599dc77, !- Holiday Schedule:Day Name
  257b40ab-5645-4009-97af-efade599dc77, !- SummerDesignDay Schedule:Day Name
  257b40ab-5645-4009-97af-efade599dc77, !- WinterDesignDay Schedule:Day Name
  257b40ab-5645-4009-97af-efade599dc77, !- CustomDay1 Schedule:Day Name
  257b40ab-5645-4009-97af-efade599dc77; !- CustomDay2 Schedule:Day Name

Schedule:Week:Daily, MechVentAvail_Uhall_0_21,
  bb4a2ede-820a-4d7e-8bc0-263da99094e4, !- Sunday Schedule:Day Name
  0bcc7613-16c7-4f50-b4d0-f3000df73108, !- Monday Schedule:Day Name
  c41f3eef-3b00-4110-8635-a8c3acc68c17, !- Tuesday Schedule:Day Name
  86f06402-88b3-4b63-9d25-9e76e8101479, !- Wednesday Schedule:Day Name
  ff2f4963-8b69-46bb-a096-fda8fec9c632, !- Thursday Schedule:Day Name
  0eb42a9c-9f69-437c-8e44-a644f9d0f833, !- Friday Schedule:Day Name
  cc054fa4-927c-48b5-b4d1-0b32a42e0e8f, !- Saturday Schedule:Day Name
  bb4a2ede-820a-4d7e-8bc0-263da99094e4, !- Holiday Schedule:Day Name
  bb4a2ede-820a-4d7e-8bc0-263da99094e4, !- SummerDesignDay Schedule:Day Name
  bb4a2ede-820a-4d7e-8bc0-263da99094e4, !- WinterDesignDay Schedule:Day Name
  bb4a2ede-820a-4d7e-8bc0-263da99094e4, !- CustomDay1 Schedule:Day Name
  bb4a2ede-820a-4d7e-8bc0-263da99094e4; !- CustomDay2 Schedule:Day Name

Schedule:Week:Daily, MechVentAvail_Uhall_0_22,
  4fa9f995-de47-4123-a1da-32c2a08db216, !- Sunday Schedule:Day Name
  887c1822-9f3f-442f-8bea-9f947e944539, !- Monday Schedule:Day Name
  0ca156a9-b41b-49d3-a22c-2b8f75c5e3b2, !- Tuesday Schedule:Day Name
  cdd0423b-c66a-42fd-802f-416a4eafe290, !- Wednesday Schedule:Day Name
  66b6a9bc-8655-4daf-ba28-a4bfb877e586, !- Thursday Schedule:Day Name
  4d12dda1-ec74-40b6-84e2-90b7e16cccc9, !- Friday Schedule:Day Name
  33bcaca4-d62e-4873-9205-4194c9205e9a, !- Saturday Schedule:Day Name
  4fa9f995-de47-4123-a1da-32c2a08db216, !- Holiday Schedule:Day Name
  4fa9f995-de47-4123-a1da-32c2a08db216, !- SummerDesignDay Schedule:Day Name
  4fa9f995-de47-4123-a1da-32c2a08db216, !- WinterDesignDay Schedule:Day Name
  4fa9f995-de47-4123-a1da-32c2a08db216, !- CustomDay1 Schedule:Day Name
  4fa9f995-de47-4123-a1da-32c2a08db216; !- CustomDay2 Schedule:Day Name

Schedule:Week:Daily, MechVentAvail_Uhall_0_23,
  1b23769c-9912-4016-bf26-049d1da81ba1, !- Sunday Schedule:Day Name
  82cd46c8-fc09-489d-8852-c2707a102208, !- Monday Schedule:Day Name
  466d0833-84f6-4f6c-9566-8e4586e9d61c, !- Tuesday Schedule:Day Name
  104041d9-cf41-494f-8531-4ac044de259c, !- Wednesday Schedule:Day Name
  2cb8c39a-c21a-472c-afed-46cdfc975710, !- Thursday Schedule:Day Name
  8704b07b-d6a4-4b2c-8d69-87c8568015b9, !- Friday Schedule:Day Name
  ad24687e-ee7d-4634-8f33-3769a78130fb, !- Saturday Schedule:Day Name
  1b23769c-9912-4016-bf26-049d1da81ba1, !- Holiday Schedule:Day Name
  1b23769c-9912-4016-bf26-049d1da81ba1, !- SummerDesignDay Schedule:Day Name
  1b23769c-9912-4016-bf26-049d1da81ba1, !- WinterDesignDay Schedule:Day Name
  1b23769c-9912-4016-bf26-049d1da81ba1, !- CustomDay1 Schedule:Day Name
  1b23769c-9912-4016-bf26-049d1da81ba1; !- CustomDay2 Schedule:Day Name

Schedule:Week:Daily, MechVentAvail_Uhall_0_24,
  326ffdde-8fd3-41f8-940d-64e04a4a2eff, !- Sunday Schedule:Day Name
  e23509dc-1e6b-4dcd-a806-1d8a15a982b1, !- Monday Schedule:Day Name
  9c8c7157-9895-4de7-a80b-528a7f400532, !- Tuesday Schedule:Day Name
  cb58139b-61e1-48d8-b714-2857315486d5, !- Wednesday Schedule:Day Name
  3d8a0fe0-3f60-4a94-9286-e59dd67f832b, !- Thursday Schedule:Day Name
  19f96bac-4eb8-444d-b63b-577d2acb7bf2, !- Friday Schedule:Day Name
  1a82f468-baec-40a9-8862-642df44536eb, !- Saturday Schedule:Day Name
  326ffdde-8fd3-41f8-940d-64e04a4a2eff, !- Holiday Schedule:Day Name
  326ffdde-8fd3-41f8-940d-64e04a4a2eff, !- SummerDesignDay Schedule:Day Name
  326ffdde-8fd3-41f8-940d-64e04a4a2eff, !- WinterDesignDay Schedule:Day Name
  326ffdde-8fd3-41f8-940d-64e04a4a2eff, !- CustomDay1 Schedule:Day Name
  326ffdde-8fd3-41f8-940d-64e04a4a2eff; !- CustomDay2 Schedule:Day Name

Schedule:Week:Daily, MechVentAvail_Uhall_0_25,
  c953ed02-1326-45c0-ada6-a1da0aa19310, !- Sunday Schedule:Day Name
  6b59d7ae-dbb3-4dd7-a191-161a56a18069, !- Monday Schedule:Day Name
  41480300-d2e8-45cd-ac1f-e24d05f81de1, !- Tuesday Schedule:Day Name
  0655b9da-9a35-4af4-9b1b-e392613f76c2, !- Wednesday Schedule:Day Name
  6ec52194-3fcb-4ce8-a9b7-7dabf0a4ccd8, !- Thursday Schedule:Day Name
  cc874c5d-adb5-40c8-a2b7-ba86e56e8c24, !- Friday Schedule:Day Name
  34252c3c-99b2-45fa-9e65-818269cba713, !- Saturday Schedule:Day Name
  c953ed02-1326-45c0-ada6-a1da0aa19310, !- Holiday Schedule:Day Name
  c953ed02-1326-45c0-ada6-a1da0aa19310, !- SummerDesignDay Schedule:Day Name
  c953ed02-1326-45c0-ada6-a1da0aa19310, !- WinterDesignDay Schedule:Day Name
  c953ed02-1326-45c0-ada6-a1da0aa19310, !- CustomDay1 Schedule:Day Name
  c953ed02-1326-45c0-ada6-a1da0aa19310; !- CustomDay2 Schedule:Day Name

Schedule:Week:Daily, MechVentAvail_Uhall_0_26,
  ee6a48ba-f6e8-4a4d-a342-0cf44f816c2d, !- Sunday Schedule:Day Name
  790219e2-9bcc-4f55-afc6-903160baa57f, !- Monday Schedule:Day Name
  4874cf86-287b-463b-8b64-cb114fd8627f, !- Tuesday Schedule:Day Name
  cd7dfd49-4afa-489d-b7de-dade7d03bfb6, !- Wednesday Schedule:Day Name
  ebaf5f8b-b01f-46fb-81ec-98a16710fb94, !- Thursday Schedule:Day Name
  d2d7cca7-833c-4756-9e39-c34c57ad9d6f, !- Friday Schedule:Day Name
  1358614b-db8a-4271-8781-99c0d811afea, !- Saturday Schedule:Day Name
  ee6a48ba-f6e8-4a4d-a342-0cf44f816c2d, !- Holiday Schedule:Day Name
  ee6a48ba-f6e8-4a4d-a342-0cf44f816c2d, !- SummerDesignDay Schedule:Day Name
  ee6a48ba-f6e8-4a4d-a342-0cf44f816c2d, !- WinterDesignDay Schedule:Day Name
  ee6a48ba-f6e8-4a4d-a342-0cf44f816c2d, !- CustomDay1 Schedule:Day Name
  ee6a48ba-f6e8-4a4d-a342-0cf44f816c2d; !- CustomDay2 Schedule:Day Name

Schedule:Week:Daily, MechVentAvail_Uhall_0_27,
  88538c19-4e1c-4c93-968e-a84e0a2e2905, !- Sunday Schedule:Day Name
  30746125-26cb-44f9-9219-ecabeb5c5564, !- Monday Schedule:Day Name
  d1fe743a-b2dd-4d72-be1e-1c55caf8a9c1, !- Tuesday Schedule:Day Name
  79e8083e-5084-4368-801e-cd49d4bbfd0f, !- Wednesday Schedule:Day Name
  75c11437-9738-445e-9ba1-95cfc2f177c1, !- Thursday Schedule:Day Name
  ef5ef648-948e-422a-b66a-496e329441ce, !- Friday Schedule:Day Name
  75e30a45-5e2a-4b1b-a777-9d0ea8587a04, !- Saturday Schedule:Day Name
  88538c19-4e1c-4c93-968e-a84e0a2e2905, !- Holiday Schedule:Day Name
  88538c19-4e1c-4c93-968e-a84e0a2e2905, !- SummerDesignDay Schedule:Day Name
  88538c19-4e1c-4c93-968e-a84e0a2e2905, !- WinterDesignDay Schedule:Day Name
  88538c19-4e1c-4c93-968e-a84e0a2e2905, !- CustomDay1 Schedule:Day Name
  88538c19-4e1c-4c93-968e-a84e0a2e2905; !- CustomDay2 Schedule:Day Name

Schedule:Week:Daily, MechVentAvail_Uhall_0_28,
  d4812dce-92e4-4fd0-843d-48cd88d0cfdb, !- Sunday Schedule:Day Name
  b9ae9906-f4e1-43b9-8f97-aaea69d61698, !- Monday Schedule:Day Name
  5ccce423-96fe-4502-9b43-87c16520157c, !- Tuesday Schedule:Day Name
  ee5123e2-f31d-4230-ae78-fba15c64a974, !- Wednesday Schedule:Day Name
  e589f685-a84e-4818-aee8-363d6345deae, !- Thursday Schedule:Day Name
  c53bd331-8f9c-419d-a3a8-7bead11b2d16, !- Friday Schedule:Day Name
  bb4a2ede-820a-4d7e-8bc0-263da99094e4, !- Saturday Schedule:Day Name
  d4812dce-92e4-4fd0-843d-48cd88d0cfdb, !- Holiday Schedule:Day Name
  d4812dce-92e4-4fd0-843d-48cd88d0cfdb, !- SummerDesignDay Schedule:Day Name
  d4812dce-92e4-4fd0-843d-48cd88d0cfdb, !- WinterDesignDay Schedule:Day Name
  d4812dce-92e4-4fd0-843d-48cd88d0cfdb, !- CustomDay1 Schedule:Day Name
  d4812dce-92e4-4fd0-843d-48cd88d0cfdb; !- CustomDay2 Schedule:Day Name

Schedule:Week:Daily, MechVentAvail_Uhall_0_29,
  1559fa51-9286-4c10-a57b-1f7c5a28632d, !- Sunday Schedule:Day Name
  1b8d56f9-f2b4-464c-baf6-a44d808d749f, !- Monday Schedule:Day Name
  cc486075-51d8-404e-b9ea-f0e77f34440d, !- Tuesday Schedule:Day Name
  e3c926c1-ab64-47a5-b6c1-cde8f6a3eff9, !- Wednesday Schedule:Day Name
  e589f685-a84e-4818-aee8-363d6345deae, !- Thursday Schedule:Day Name
  e589f685-a84e-4818-aee8-363d6345deae, !- Friday Schedule:Day Name
  83cfeb36-5ad1-4462-a527-89aeb552d20d, !- Saturday Schedule:Day Name
  1559fa51-9286-4c10-a57b-1f7c5a28632d, !- Holiday Schedule:Day Name
  1559fa51-9286-4c10-a57b-1f7c5a28632d, !- SummerDesignDay Schedule:Day Name
  1559fa51-9286-4c10-a57b-1f7c5a28632d, !- WinterDesignDay Schedule:Day Name
  1559fa51-9286-4c10-a57b-1f7c5a28632d, !- CustomDay1 Schedule:Day Name
  1559fa51-9286-4c10-a57b-1f7c5a28632d; !- CustomDay2 Schedule:Day Name

Schedule:Week:Daily, MechVentAvail_Uhall_0_30,
  20db4f2f-f3b0-41af-a0df-482547954cae, !- Sunday Schedule:Day Name
  1d82ed7c-05c0-4b74-ae5d-eac78ce218c4, !- Monday Schedule:Day Name
  c4b0594f-9bde-40f1-be48-02ebd69c7348, !- Tuesday Schedule:Day Name
  b0ad4eb1-137e-417d-afb5-233ba4f6d5e7, !- Wednesday Schedule:Day Name
  a361a9e9-5ea1-4cc8-858e-a30e088409c0, !- Thursday Schedule:Day Name
  6dc5f9fe-6689-4feb-bc3f-969f1dab456c, !- Friday Schedule:Day Name
  ae740c22-83ad-4d72-822a-72d738c84b4c, !- Saturday Schedule:Day Name
  20db4f2f-f3b0-41af-a0df-482547954cae, !- Holiday Schedule:Day Name
  20db4f2f-f3b0-41af-a0df-482547954cae, !- SummerDesignDay Schedule:Day Name
  20db4f2f-f3b0-41af-a0df-482547954cae, !- WinterDesignDay Schedule:Day Name
  20db4f2f-f3b0-41af-a0df-482547954cae, !- CustomDay1 Schedule:Day Name
  20db4f2f-f3b0-41af-a0df-482547954cae; !- CustomDay2 Schedule:Day Name

Schedule:Week:Daily, MechVentAvail_Uhall_0_31,
  2fb2d763-5f3b-4b91-a97d-dab8fc16594a, !- Sunday Schedule:Day Name
  d7e7454e-0c62-4fb5-abbb-e8e4b7720e89, !- Monday Schedule:Day Name
  cc486075-51d8-404e-b9ea-f0e77f34440d, !- Tuesday Schedule:Day Name
  0c2f5271-cff0-4a69-a1f3-5080dd4e2f9a, !- Wednesday Schedule:Day Name
  8a9a608f-8df8-49a6-b34f-d6e6eb8d9ef6, !- Thursday Schedule:Day Name
  fe0c08fd-7af7-435e-b2c1-ca638bd41060, !- Friday Schedule:Day Name
  227444cc-a8b7-47ed-ba15-db845e38a4f7, !- Saturday Schedule:Day Name
  2fb2d763-5f3b-4b91-a97d-dab8fc16594a, !- Holiday Schedule:Day Name
  2fb2d763-5f3b-4b91-a97d-dab8fc16594a, !- SummerDesignDay Schedule:Day Name
  2fb2d763-5f3b-4b91-a97d-dab8fc16594a, !- WinterDesignDay Schedule:Day Name
  2fb2d763-5f3b-4b91-a97d-dab8fc16594a, !- CustomDay1 Schedule:Day Name
  2fb2d763-5f3b-4b91-a97d-dab8fc16594a; !- CustomDay2 Schedule:Day Name

Schedule:Week:Daily, MechVentAvail_Uhall_0_32,
  60699407-8e47-45ec-8a04-47a0ae7f4457, !- Sunday Schedule:Day Name
  3f977091-cb24-4c87-a0b1-3a36739f0a4a, !- Monday Schedule:Day Name
  c6a5d389-0457-4692-96d1-bd8dbc1a82d5, !- Tuesday Schedule:Day Name
  1c58df69-9b14-49e4-90e6-423c74abc6ae, !- Wednesday Schedule:Day Name
  a8ad3596-634a-48eb-bad2-500617258e52, !- Thursday Schedule:Day Name
  65845a05-8a8c-42bf-95d9-b6d2e368aa02, !- Friday Schedule:Day Name
  6a86ab29-eecf-41bd-8819-4c06628de85e, !- Saturday Schedule:Day Name
  60699407-8e47-45ec-8a04-47a0ae7f4457, !- Holiday Schedule:Day Name
  60699407-8e47-45ec-8a04-47a0ae7f4457, !- SummerDesignDay Schedule:Day Name
  60699407-8e47-45ec-8a04-47a0ae7f4457, !- WinterDesignDay Schedule:Day Name
  60699407-8e47-45ec-8a04-47a0ae7f4457, !- CustomDay1 Schedule:Day Name
  60699407-8e47-45ec-8a04-47a0ae7f4457; !- CustomDay2 Schedule:Day Name

Schedule:Week:Daily, MechVentAvail_Uhall_0_33,
  3a49a71b-682b-49d9-b452-f680439e5dcd, !- Sunday Schedule:Day Name
  452d2c8e-1c76-4fc6-a22d-1cf568360426, !- Monday Schedule:Day Name
  6c2d03cb-d23c-459b-b72a-ef676cd13fe8, !- Tuesday Schedule:Day Name
  f1d434eb-759d-49dc-a6db-a1d232a3d517, !- Wednesday Schedule:Day Name
  e31e8667-a67c-4b4b-a876-83b78cb6bc00, !- Thursday Schedule:Day Name
  c41f3eef-3b00-4110-8635-a8c3acc68c17, !- Friday Schedule:Day Name
  06767887-9e3e-48a4-9b25-a64a89916fff, !- Saturday Schedule:Day Name
  3a49a71b-682b-49d9-b452-f680439e5dcd, !- Holiday Schedule:Day Name
  3a49a71b-682b-49d9-b452-f680439e5dcd, !- SummerDesignDay Schedule:Day Name
  3a49a71b-682b-49d9-b452-f680439e5dcd, !- WinterDesignDay Schedule:Day Name
  3a49a71b-682b-49d9-b452-f680439e5dcd, !- CustomDay1 Schedule:Day Name
  3a49a71b-682b-49d9-b452-f680439e5dcd; !- CustomDay2 Schedule:Day Name

Schedule:Week:Daily, MechVentAvail_Uhall_0_34,
  85f6f0f1-c189-452c-a53e-85cf6df4ea3a, !- Sunday Schedule:Day Name
  3e483427-98b3-411f-ac16-c0e1e9afc8e8, !- Monday Schedule:Day Name
  9e9e7059-73f8-4409-8d30-6832d868240e, !- Tuesday Schedule:Day Name
  9c5a30d7-7394-47f4-a253-b72e66a3f584, !- Wednesday Schedule:Day Name
  a78ecda9-0306-484a-8aea-17141c411591, !- Thursday Schedule:Day Name
  7ea33b74-88dc-449d-9851-80bf0418e2d4, !- Friday Schedule:Day Name
  625a3683-c8b4-4b30-aea2-6b91c24a47e7, !- Saturday Schedule:Day Name
  85f6f0f1-c189-452c-a53e-85cf6df4ea3a, !- Holiday Schedule:Day Name
  85f6f0f1-c189-452c-a53e-85cf6df4ea3a, !- SummerDesignDay Schedule:Day Name
  85f6f0f1-c189-452c-a53e-85cf6df4ea3a, !- WinterDesignDay Schedule:Day Name
  85f6f0f1-c189-452c-a53e-85cf6df4ea3a, !- CustomDay1 Schedule:Day Name
  85f6f0f1-c189-452c-a53e-85cf6df4ea3a; !- CustomDay2 Schedule:Day Name

Schedule:Week:Daily, MechVentAvail_Uhall_0_35,
  2bad0aaa-cb40-4398-a2d7-199ee08973b5, !- Sunday Schedule:Day Name
  9e489189-e3b2-47f3-a015-2c17a11543ca, !- Monday Schedule:Day Name
  db07ce6c-1d0b-40f1-9724-6f7446501cfa, !- Tuesday Schedule:Day Name
  06c740f1-3dce-4cfa-a1ef-f8ef9041f529, !- Wednesday Schedule:Day Name
  43a85af4-5db7-43c8-b0b0-0cfb932f600b, !- Thursday Schedule:Day Name
  2038bb20-7ec9-4fac-9f7d-42093d49aa63, !- Friday Schedule:Day Name
  e8e5f328-0ffc-40e8-bad2-47fa7c69a7a0, !- Saturday Schedule:Day Name
  2bad0aaa-cb40-4398-a2d7-199ee08973b5, !- Holiday Schedule:Day Name
  2bad0aaa-cb40-4398-a2d7-199ee08973b5, !- SummerDesignDay Schedule:Day Name
  2bad0aaa-cb40-4398-a2d7-199ee08973b5, !- WinterDesignDay Schedule:Day Name
  2bad0aaa-cb40-4398-a2d7-199ee08973b5, !- CustomDay1 Schedule:Day Name
  2bad0aaa-cb40-4398-a2d7-199ee08973b5; !- CustomDay2 Schedule:Day Name

Schedule:Week:Daily, MechVentAvail_Uhall_0_36,
  ab9d70c9-feed-43cc-a1ca-82c74ac5aac6, !- Sunday Schedule:Day Name
  257b40ab-5645-4009-97af-efade599dc77, !- Monday Schedule:Day Name
  c313d9a8-e4d4-46cf-8e09-92cba6c11744, !- Tuesday Schedule:Day Name
  1e1fcf91-df0a-4968-9e03-a562fc365c59, !- Wednesday Schedule:Day Name
  c76d2652-0fbc-4c57-97b5-168db8e2e222, !- Thursday Schedule:Day Name
  bef53187-a794-4334-a5d4-e8a3bd96adbc, !- Friday Schedule:Day Name
  41480300-d2e8-45cd-ac1f-e24d05f81de1, !- Saturday Schedule:Day Name
  ab9d70c9-feed-43cc-a1ca-82c74ac5aac6, !- Holiday Schedule:Day Name
  ab9d70c9-feed-43cc-a1ca-82c74ac5aac6, !- SummerDesignDay Schedule:Day Name
  ab9d70c9-feed-43cc-a1ca-82c74ac5aac6, !- WinterDesignDay Schedule:Day Name
  ab9d70c9-feed-43cc-a1ca-82c74ac5aac6, !- CustomDay1 Schedule:Day Name
  ab9d70c9-feed-43cc-a1ca-82c74ac5aac6; !- CustomDay2 Schedule:Day Name

Schedule:Week:Daily, MechVentAvail_Uhall_0_37,
  e589f685-a84e-4818-aee8-363d6345deae, !- Sunday Schedule:Day Name
  bfcd59e4-541e-416e-a329-7b4c50d4a226, !- Monday Schedule:Day Name
  54bdd4b4-fd4a-4fdf-8d53-a77e674ee045, !- Tuesday Schedule:Day Name
  853f86ae-d952-4bb6-8e8f-37ad2bf2c0d8, !- Wednesday Schedule:Day Name
  866934fb-4abc-4012-b7ae-2652c55b91b5, !- Thursday Schedule:Day Name
  003c1343-9910-4965-afdd-74b0b1b28fbc, !- Friday Schedule:Day Name
  a6358ca5-8168-450f-9a34-7eae4738b643, !- Saturday Schedule:Day Name
  e589f685-a84e-4818-aee8-363d6345deae, !- Holiday Schedule:Day Name
  e589f685-a84e-4818-aee8-363d6345deae, !- SummerDesignDay Schedule:Day Name
  e589f685-a84e-4818-aee8-363d6345deae, !- WinterDesignDay Schedule:Day Name
  e589f685-a84e-4818-aee8-363d6345deae, !- CustomDay1 Schedule:Day Name
  e589f685-a84e-4818-aee8-363d6345deae; !- CustomDay2 Schedule:Day Name

Schedule:Week:Daily, MechVentAvail_Uhall_0_38,
  846b58e2-839b-41f2-9d04-9d4daf408af0, !- Sunday Schedule:Day Name
  07174647-541f-4974-a7f1-0633f2ed7e0b, !- Monday Schedule:Day Name
  ab9d70c9-feed-43cc-a1ca-82c74ac5aac6, !- Tuesday Schedule:Day Name
  fdad6677-eeb7-48c9-a6c1-936a7f41ad86, !- Wednesday Schedule:Day Name
  13c64a9b-017a-4c70-a607-ce5a9e7dd3fd, !- Thursday Schedule:Day Name
  73687f7e-3e00-4d5f-a7a0-0f2641d9cb89, !- Friday Schedule:Day Name
  22ff2306-5a50-48e3-85ab-f2fed33de9ad, !- Saturday Schedule:Day Name
  846b58e2-839b-41f2-9d04-9d4daf408af0, !- Holiday Schedule:Day Name
  846b58e2-839b-41f2-9d04-9d4daf408af0, !- SummerDesignDay Schedule:Day Name
  846b58e2-839b-41f2-9d04-9d4daf408af0, !- WinterDesignDay Schedule:Day Name
  846b58e2-839b-41f2-9d04-9d4daf408af0, !- CustomDay1 Schedule:Day Name
  846b58e2-839b-41f2-9d04-9d4daf408af0; !- CustomDay2 Schedule:Day Name

Schedule:Week:Daily, MechVentAvail_Uhall_0_39,
  fa407cf4-4832-4826-8720-46d485bcae77, !- Sunday Schedule:Day Name
  156e0c7b-1eaf-4df0-9f48-5414e7d6628d, !- Monday Schedule:Day Name
  7b8f0ee8-4ade-426c-8fbe-d5206c386751, !- Tuesday Schedule:Day Name
  a7e8581c-efec-4a9a-9356-f6e272b09e3f, !- Wednesday Schedule:Day Name
  94eb93d3-130e-461e-8785-8ffef0f72ca0, !- Thursday Schedule:Day Name
  b3390f4d-d3f4-4eb7-a936-c38300da486d, !- Friday Schedule:Day Name
  e589f685-a84e-4818-aee8-363d6345deae, !- Saturday Schedule:Day Name
  fa407cf4-4832-4826-8720-46d485bcae77, !- Holiday Schedule:Day Name
  fa407cf4-4832-4826-8720-46d485bcae77, !- SummerDesignDay Schedule:Day Name
  fa407cf4-4832-4826-8720-46d485bcae77, !- WinterDesignDay Schedule:Day Name
  fa407cf4-4832-4826-8720-46d485bcae77, !- CustomDay1 Schedule:Day Name
  fa407cf4-4832-4826-8720-46d485bcae77; !- CustomDay2 Schedule:Day Name

Schedule:Week:Daily, MechVentAvail_Uhall_0_40,
  e3c926c1-ab64-47a5-b6c1-cde8f6a3eff9, !- Sunday Schedule:Day Name
  876e857f-4959-494d-b16b-601beafb1ec9, !- Monday Schedule:Day Name
  b657c9e7-afca-4ae8-a33d-938b3d86fdab, !- Tuesday Schedule:Day Name
  99ade35d-b1a4-4347-aa3a-364cd4bf2245, !- Wednesday Schedule:Day Name
  396e36f4-99d6-439f-9333-bd7a06f5599f, !- Thursday Schedule:Day Name
  8a300b51-7f5b-4121-af67-3004d40a0ba0, !- Friday Schedule:Day Name
  b5f8ef1c-e175-4f04-ad3b-50d1e2fd0c38, !- Saturday Schedule:Day Name
  e3c926c1-ab64-47a5-b6c1-cde8f6a3eff9, !- Holiday Schedule:Day Name
  e3c926c1-ab64-47a5-b6c1-cde8f6a3eff9, !- SummerDesignDay Schedule:Day Name
  e3c926c1-ab64-47a5-b6c1-cde8f6a3eff9, !- WinterDesignDay Schedule:Day Name
  e3c926c1-ab64-47a5-b6c1-cde8f6a3eff9, !- CustomDay1 Schedule:Day Name
  e3c926c1-ab64-47a5-b6c1-cde8f6a3eff9; !- CustomDay2 Schedule:Day Name

Schedule:Week:Daily, MechVentAvail_Uhall_0_41,
  ea110a93-a8a7-48fb-9a26-a39735e4c26a, !- Sunday Schedule:Day Name
  699edc9a-12e3-47d9-8ab7-0dbe984ce1c0, !- Monday Schedule:Day Name
  aa8c40c5-6c1d-46fd-86f9-c95dc07664db, !- Tuesday Schedule:Day Name
  7f96201e-5005-44d2-910d-170d13ff5579, !- Wednesday Schedule:Day Name
  bc255aef-9901-45d0-8e55-61953f3fa468, !- Thursday Schedule:Day Name
  7231988e-57d6-4459-b775-c103dc271099, !- Friday Schedule:Day Name
  f4f25312-34b6-42cd-8456-3a78661d2827, !- Saturday Schedule:Day Name
  ea110a93-a8a7-48fb-9a26-a39735e4c26a, !- Holiday Schedule:Day Name
  ea110a93-a8a7-48fb-9a26-a39735e4c26a, !- SummerDesignDay Schedule:Day Name
  ea110a93-a8a7-48fb-9a26-a39735e4c26a, !- WinterDesignDay Schedule:Day Name
  ea110a93-a8a7-48fb-9a26-a39735e4c26a, !- CustomDay1 Schedule:Day Name
  ea110a93-a8a7-48fb-9a26-a39735e4c26a; !- CustomDay2 Schedule:Day Name

Schedule:Week:Daily, MechVentAvail_Uhall_0_42,
  aa974862-c187-42e8-aa48-ace689d6e0a7, !- Sunday Schedule:Day Name
  8bb454cf-9091-48a1-8fa2-bb9467c1582d, !- Monday Schedule:Day Name
  fb6d8b10-64c6-4768-8def-1ae53cd30cf7, !- Tuesday Schedule:Day Name
  3e10dd48-ad7e-42ca-beae-7cfd3233a09a, !- Wednesday Schedule:Day Name
  2ad3789e-b596-4a6c-b76c-c62c5585e1f8, !- Thursday Schedule:Day Name
  9b26ad11-a201-43fa-a19f-e1e0bf61d2db, !- Friday Schedule:Day Name
  334d533c-fd0b-4512-b939-61f84e1eb9e3, !- Saturday Schedule:Day Name
  aa974862-c187-42e8-aa48-ace689d6e0a7, !- Holiday Schedule:Day Name
  aa974862-c187-42e8-aa48-ace689d6e0a7, !- SummerDesignDay Schedule:Day Name
  aa974862-c187-42e8-aa48-ace689d6e0a7, !- WinterDesignDay Schedule:Day Name
  aa974862-c187-42e8-aa48-ace689d6e0a7, !- CustomDay1 Schedule:Day Name
  aa974862-c187-42e8-aa48-ace689d6e0a7; !- CustomDay2 Schedule:Day Name

Schedule:Week:Daily, MechVentAvail_Uhall_0_43,
  f11f1636-b269-4f87-aff8-27aa935bf4b3, !- Sunday Schedule:Day Name
  136ad646-8ec3-4805-849a-e9ef29558a26, !- Monday Schedule:Day Name
  6a7f27cd-f468-4a68-8100-83bf9b7b8bf5, !- Tuesday Schedule:Day Name
  f8fbcafc-a4ec-44cb-9543-f6413bac8f72, !- Wednesday Schedule:Day Name
  57b254bd-a5f7-4dba-b707-0136e4121f7f, !- Thursday Schedule:Day Name
  e6d8b54d-22ea-47ef-b462-662480a5f86f, !- Friday Schedule:Day Name
  3bb82a51-4f6c-4a6f-97fe-e665a4aa5010, !- Saturday Schedule:Day Name
  f11f1636-b269-4f87-aff8-27aa935bf4b3, !- Holiday Schedule:Day Name
  f11f1636-b269-4f87-aff8-27aa935bf4b3, !- SummerDesignDay Schedule:Day Name
  f11f1636-b269-4f87-aff8-27aa935bf4b3, !- WinterDesignDay Schedule:Day Name
  f11f1636-b269-4f87-aff8-27aa935bf4b3, !- CustomDay1 Schedule:Day Name
  f11f1636-b269-4f87-aff8-27aa935bf4b3; !- CustomDay2 Schedule:Day Name

Schedule:Week:Daily, MechVentAvail_Uhall_0_44,
  8bff091a-fcc9-41ec-8b7f-395e2fa86ead, !- Sunday Schedule:Day Name
  25042a8d-6a95-4ecf-8721-55ece700b690, !- Monday Schedule:Day Name
  c0a39ba0-22a6-48f2-9603-f38976585fb6, !- Tuesday Schedule:Day Name
  4d63b46f-a2e4-4106-9002-6263c44a7f26, !- Wednesday Schedule:Day Name
  62624d2a-b093-448d-818b-a2770e4de26c, !- Thursday Schedule:Day Name
  ae34816d-fa09-40f2-aeef-f178f9d61306, !- Friday Schedule:Day Name
  303a5f83-3299-448e-8582-a0a791d3c55a, !- Saturday Schedule:Day Name
  8bff091a-fcc9-41ec-8b7f-395e2fa86ead, !- Holiday Schedule:Day Name
  8bff091a-fcc9-41ec-8b7f-395e2fa86ead, !- SummerDesignDay Schedule:Day Name
  8bff091a-fcc9-41ec-8b7f-395e2fa86ead, !- WinterDesignDay Schedule:Day Name
  8bff091a-fcc9-41ec-8b7f-395e2fa86ead, !- CustomDay1 Schedule:Day Name
  8bff091a-fcc9-41ec-8b7f-395e2fa86ead; !- CustomDay2 Schedule:Day Name

Schedule:Week:Daily, MechVentAvail_Uhall_0_45,
  170add1a-4e6b-4bc4-a46f-dc19ef3f801b, !- Sunday Schedule:Day Name
  1d82ed7c-05c0-4b74-ae5d-eac78ce218c4, !- Monday Schedule:Day Name
  0c8cbfae-1c65-4d1d-aca7-c0e751a450cf, !- Tuesday Schedule:Day Name
  7746b621-f62f-439d-ae02-4ff435249f25, !- Wednesday Schedule:Day Name
  7b8f0ee8-4ade-426c-8fbe-d5206c386751, !- Thursday Schedule:Day Name
  31543a46-a7a2-4402-9643-570e702bb547, !- Friday Schedule:Day Name
  170add1a-4e6b-4bc4-a46f-dc19ef3f801b, !- Saturday Schedule:Day Name
  170add1a-4e6b-4bc4-a46f-dc19ef3f801b, !- Holiday Schedule:Day Name
  170add1a-4e6b-4bc4-a46f-dc19ef3f801b, !- SummerDesignDay Schedule:Day Name
  170add1a-4e6b-4bc4-a46f-dc19ef3f801b, !- WinterDesignDay Schedule:Day Name
  170add1a-4e6b-4bc4-a46f-dc19ef3f801b, !- CustomDay1 Schedule:Day Name
  170add1a-4e6b-4bc4-a46f-dc19ef3f801b; !- CustomDay2 Schedule:Day Name

Schedule:Week:Daily, MechVentAvail_Uhall_0_46,
  aaf1e1fa-7e53-470f-801d-3128046d0bec, !- Sunday Schedule:Day Name
  8bb454cf-9091-48a1-8fa2-bb9467c1582d, !- Monday Schedule:Day Name
  be8e28cc-f7c6-43ef-8a21-5cf6166ca115, !- Tuesday Schedule:Day Name
  b73ce967-46ce-4edc-85e8-febf9f99aa86, !- Wednesday Schedule:Day Name
  b610989e-2758-475f-9f85-ccb0c86ddb02, !- Thursday Schedule:Day Name
  82d0f90d-c65d-44a7-9e74-8d477d8cee77, !- Friday Schedule:Day Name
  89a3181f-b557-4ab6-a07d-6371fc984d98, !- Saturday Schedule:Day Name
  aaf1e1fa-7e53-470f-801d-3128046d0bec, !- Holiday Schedule:Day Name
  aaf1e1fa-7e53-470f-801d-3128046d0bec, !- SummerDesignDay Schedule:Day Name
  aaf1e1fa-7e53-470f-801d-3128046d0bec, !- WinterDesignDay Schedule:Day Name
  aaf1e1fa-7e53-470f-801d-3128046d0bec, !- CustomDay1 Schedule:Day Name
  aaf1e1fa-7e53-470f-801d-3128046d0bec; !- CustomDay2 Schedule:Day Name

Schedule:Week:Daily, MechVentAvail_Uhall_0_47,
  38f146cc-59da-4eaa-81e2-e8e668f91803, !- Sunday Schedule:Day Name
  5b1c1975-4151-48e6-9ac6-8ba9c77f3377, !- Monday Schedule:Day Name
  0c48338b-0f44-49a6-a413-403ef1229694, !- Tuesday Schedule:Day Name
  b21f65cc-6db9-41ce-b9b3-661f24a5cef7, !- Wednesday Schedule:Day Name
  d622cf19-3c4d-4d92-be32-7cfa2f02850c, !- Thursday Schedule:Day Name
  a71769e2-206c-44b1-9f6b-b75f0fdc65b7, !- Friday Schedule:Day Name
  8b11b80b-1080-4a83-b137-275c54478cba, !- Saturday Schedule:Day Name
  38f146cc-59da-4eaa-81e2-e8e668f91803, !- Holiday Schedule:Day Name
  38f146cc-59da-4eaa-81e2-e8e668f91803, !- SummerDesignDay Schedule:Day Name
  38f146cc-59da-4eaa-81e2-e8e668f91803, !- WinterDesignDay Schedule:Day Name
  38f146cc-59da-4eaa-81e2-e8e668f91803, !- CustomDay1 Schedule:Day Name
  38f146cc-59da-4eaa-81e2-e8e668f91803; !- CustomDay2 Schedule:Day Name

Schedule:Week:Daily, MechVentAvail_Uhall_0_48,
  56469a80-e013-4a92-9f71-e630c50a624b, !- Sunday Schedule:Day Name
  c13edd3c-6abc-4d13-99b2-f0cd3f8531af, !- Monday Schedule:Day Name
  fe588b7b-e3bb-4130-86a5-2bafded251f4, !- Tuesday Schedule:Day Name
  48f8865f-526d-44bb-9988-9b8ac543002f, !- Wednesday Schedule:Day Name
  9543784f-d80a-40e1-b67c-fa366f8e773e, !- Thursday Schedule:Day Name
  8189c87b-fb73-492f-ba1e-3e619645b730, !- Friday Schedule:Day Name
  b96a0f96-60c8-4087-b917-cecf00efb78f, !- Saturday Schedule:Day Name
  56469a80-e013-4a92-9f71-e630c50a624b, !- Holiday Schedule:Day Name
  56469a80-e013-4a92-9f71-e630c50a624b, !- SummerDesignDay Schedule:Day Name
  56469a80-e013-4a92-9f71-e630c50a624b, !- WinterDesignDay Schedule:Day Name
  56469a80-e013-4a92-9f71-e630c50a624b, !- CustomDay1 Schedule:Day Name
  56469a80-e013-4a92-9f71-e630c50a624b; !- CustomDay2 Schedule:Day Name

Schedule:Week:Daily, MechVentAvail_Uhall_0_49,
  4250ed1e-f6c4-492f-9a93-31eaa60eeaf2, !- Sunday Schedule:Day Name
  e512527d-2b8d-4b7c-a07a-5fc6b4983035, !- Monday Schedule:Day Name
  0812a75d-8cc2-4e2e-a2a1-db448d9b0435, !- Tuesday Schedule:Day Name
  adbb301d-1f44-4516-ac46-d7cf895459b6, !- Wednesday Schedule:Day Name
  9c8e3532-d700-49d4-9ff1-133c041be157, !- Thursday Schedule:Day Name
  6d1f6ef8-28d9-4efa-836f-79dbe2c9a36d, !- Friday Schedule:Day Name
  96fcb3aa-37ba-4f07-9de2-6795088a92d4, !- Saturday Schedule:Day Name
  4250ed1e-f6c4-492f-9a93-31eaa60eeaf2, !- Holiday Schedule:Day Name
  4250ed1e-f6c4-492f-9a93-31eaa60eeaf2, !- SummerDesignDay Schedule:Day Name
  4250ed1e-f6c4-492f-9a93-31eaa60eeaf2, !- WinterDesignDay Schedule:Day Name
  4250ed1e-f6c4-492f-9a93-31eaa60eeaf2, !- CustomDay1 Schedule:Day Name
  4250ed1e-f6c4-492f-9a93-31eaa60eeaf2; !- CustomDay2 Schedule:Day Name

Schedule:Week:Daily, MechVentAvail_Uhall_0_50,
  7904f1b2-d521-44ed-bbdf-6285749ec256, !- Sunday Schedule:Day Name
  b657c9e7-afca-4ae8-a33d-938b3d86fdab, !- Monday Schedule:Day Name
  97285481-3ed5-409f-8473-52abdef88083, !- Tuesday Schedule:Day Name
  2258e41e-dced-4f4e-8afe-0ba8e83b7f2a, !- Wednesday Schedule:Day Name
  9af88808-9c1e-49e8-9cd4-60bb524454be, !- Thursday Schedule:Day Name
  b6af22a2-ebc6-49fc-93c6-3f74d9213b32, !- Friday Schedule:Day Name
  853783de-594a-4ca5-839f-67888f320912, !- Saturday Schedule:Day Name
  7904f1b2-d521-44ed-bbdf-6285749ec256, !- Holiday Schedule:Day Name
  7904f1b2-d521-44ed-bbdf-6285749ec256, !- SummerDesignDay Schedule:Day Name
  7904f1b2-d521-44ed-bbdf-6285749ec256, !- WinterDesignDay Schedule:Day Name
  7904f1b2-d521-44ed-bbdf-6285749ec256, !- CustomDay1 Schedule:Day Name
  7904f1b2-d521-44ed-bbdf-6285749ec256; !- CustomDay2 Schedule:Day Name

Schedule:Week:Daily, MechVentAvail_Uhall_0_51,
  86c57143-ffed-4de5-b267-bbec8844d14e, !- Sunday Schedule:Day Name
  8db33876-b01f-445c-bbda-69fa527fc7fc, !- Monday Schedule:Day Name
  99cdd683-29cf-42e6-a1ab-6bc93bd9379a, !- Tuesday Schedule:Day Name
  f853c6d1-c679-45db-a18b-ef365238a26a, !- Wednesday Schedule:Day Name
  e4086513-5e96-4223-bd2c-a2ea429b8da7, !- Thursday Schedule:Day Name
  b149aa5f-44e4-4c6e-bea9-ae0ec9cfe6cc, !- Friday Schedule:Day Name
  fe0c08fd-7af7-435e-b2c1-ca638bd41060, !- Saturday Schedule:Day Name
  86c57143-ffed-4de5-b267-bbec8844d14e, !- Holiday Schedule:Day Name
  86c57143-ffed-4de5-b267-bbec8844d14e, !- SummerDesignDay Schedule:Day Name
  86c57143-ffed-4de5-b267-bbec8844d14e, !- WinterDesignDay Schedule:Day Name
  86c57143-ffed-4de5-b267-bbec8844d14e, !- CustomDay1 Schedule:Day Name
  86c57143-ffed-4de5-b267-bbec8844d14e; !- CustomDay2 Schedule:Day Name

Schedule:Week:Daily, MechVentAvail_Uhall_0_52,
  fd4a921d-8031-40be-b9cd-2fede9e5bcd7, !- Sunday Schedule:Day Name
  fd4a921d-8031-40be-b9cd-2fede9e5bcd7, !- Monday Schedule:Day Name
  fd4a921d-8031-40be-b9cd-2fede9e5bcd7, !- Tuesday Schedule:Day Name
  fd4a921d-8031-40be-b9cd-2fede9e5bcd7, !- Wednesday Schedule:Day Name
  fd4a921d-8031-40be-b9cd-2fede9e5bcd7, !- Thursday Schedule:Day Name
  fd4a921d-8031-40be-b9cd-2fede9e5bcd7, !- Friday Schedule:Day Name
  fd4a921d-8031-40be-b9cd-2fede9e5bcd7, !- Saturday Schedule:Day Name
  fd4a921d-8031-40be-b9cd-2fede9e5bcd7, !- Holiday Schedule:Day Name
  fd4a921d-8031-40be-b9cd-2fede9e5bcd7, !- SummerDesignDay Schedule:Day Name
  fd4a921d-8031-40be-b9cd-2fede9e5bcd7, !- WinterDesignDay Schedule:Day Name
  fd4a921d-8031-40be-b9cd-2fede9e5bcd7, !- CustomDay1 Schedule:Day Name
  fd4a921d-8031-40be-b9cd-2fede9e5bcd7; !- CustomDay2 Schedule:Day Name


Schedule:Year,NatVentAvail_Uhall_0,
Fraction,
NatVentAvail_Uhall_0_0,1,1,1,7, 
NatVentAvail_Uhall_0_1,1,8,1,14, 
NatVentAvail_Uhall_0_2,1,15,1,21, 
NatVentAvail_Uhall_0_3,1,22,1,28, 
NatVentAvail_Uhall_0_4,1,29,2,4, 
NatVentAvail_Uhall_0_5,2,5,2,11, 
NatVentAvail_Uhall_0_6,2,12,2,18, 
NatVentAvail_Uhall_0_7,2,19,2,25, 
NatVentAvail_Uhall_0_8,2,26,3,4, 
NatVentAvail_Uhall_0_9,3,5,3,11, 
NatVentAvail_Uhall_0_10,3,12,3,18, 
NatVentAvail_Uhall_0_11,3,19,3,25, 
NatVentAvail_Uhall_0_12,3,26,4,1, 
NatVentAvail_Uhall_0_13,4,2,4,8, 
NatVentAvail_Uhall_0_14,4,9,4,15, 
NatVentAvail_Uhall_0_15,4,16,4,22, 
NatVentAvail_Uhall_0_16,4,23,4,29, 
NatVentAvail_Uhall_0_17,4,30,5,6, 
NatVentAvail_Uhall_0_18,5,7,5,13, 
NatVentAvail_Uhall_0_19,5,14,5,20, 
NatVentAvail_Uhall_0_20,5,21,5,27, 
NatVentAvail_Uhall_0_21,5,28,6,3, 
NatVentAvail_Uhall_0_22,6,4,6,10, 
NatVentAvail_Uhall_0_23,6,11,6,17, 
NatVentAvail_Uhall_0_24,6,18,6,24, 
NatVentAvail_Uhall_0_25,6,25,7,1, 
NatVentAvail_Uhall_0_26,7,2,7,8, 
NatVentAvail_Uhall_0_27,7,9,7,15, 
NatVentAvail_Uhall_0_28,7,16,7,22, 
NatVentAvail_Uhall_0_29,7,23,7,29, 
NatVentAvail_Uhall_0_30,7,30,8,5, 
NatVentAvail_Uhall_0_31,8,6,8,12, 
NatVentAvail_Uhall_0_32,8,13,8,19, 
NatVentAvail_Uhall_0_33,8,20,8,26, 
NatVentAvail_Uhall_0_34,8,27,9,2, 
NatVentAvail_Uhall_0_35,9,3,9,9, 
NatVentAvail_Uhall_0_36,9,10,9,16, 
NatVentAvail_Uhall_0_37,9,17,9,23, 
NatVentAvail_Uhall_0_38,9,24,9,30, 
NatVentAvail_Uhall_0_39,10,1,10,7, 
NatVentAvail_Uhall_0_40,10,8,10,14, 
NatVentAvail_Uhall_0_41,10,15,10,21, 
NatVentAvail_Uhall_0_42,10,22,10,28, 
NatVentAvail_Uhall_0_43,10,29,11,4, 
NatVentAvail_Uhall_0_44,11,5,11,11, 
NatVentAvail_Uhall_0_45,11,12,11,18, 
NatVentAvail_Uhall_0_46,11,19,11,25, 
NatVentAvail_Uhall_0_47,11,26,12,2, 
NatVentAvail_Uhall_0_48,12,3,12,9, 
NatVentAvail_Uhall_0_49,12,10,12,16, 
NatVentAvail_Uhall_0_50,12,17,12,23, 
NatVentAvail_Uhall_0_51,12,24,12,30, 
NatVentAvail_Uhall_0_52,12,31,12,31;

Schedule:Week:Daily, NatVentAvail_Uhall_0_0,
  242caa8b-292f-4fd6-83fe-2419b4fcbaa0, !- Sunday Schedule:Day Name
  8872b3b9-6b74-4764-9203-c7af2d8d7e58, !- Monday Schedule:Day Name
  80e7f182-8e6b-4cf9-81f2-8b54cf934f74, !- Tuesday Schedule:Day Name
  280b9013-2529-4c83-876d-60a7d899b302, !- Wednesday Schedule:Day Name
  21f3e12a-8bb5-45a5-8b98-88bbdb92a5cf, !- Thursday Schedule:Day Name
  700d3dc2-1daa-4162-9819-68588370b7c9, !- Friday Schedule:Day Name
  2f4c3851-428f-489b-b8c2-8acd69c8a203, !- Saturday Schedule:Day Name
  242caa8b-292f-4fd6-83fe-2419b4fcbaa0, !- Holiday Schedule:Day Name
  242caa8b-292f-4fd6-83fe-2419b4fcbaa0, !- SummerDesignDay Schedule:Day Name
  242caa8b-292f-4fd6-83fe-2419b4fcbaa0, !- WinterDesignDay Schedule:Day Name
  242caa8b-292f-4fd6-83fe-2419b4fcbaa0, !- CustomDay1 Schedule:Day Name
  242caa8b-292f-4fd6-83fe-2419b4fcbaa0; !- CustomDay2 Schedule:Day Name

Schedule:Week:Daily, NatVentAvail_Uhall_0_1,
  93a13f0a-5453-43bf-a4cc-f7758c70d85d, !- Sunday Schedule:Day Name
  9d40143a-77d7-46c1-8842-3e8f36fb11ef, !- Monday Schedule:Day Name
  e4d28607-be3a-4269-9077-16d0b565d130, !- Tuesday Schedule:Day Name
  b8513b11-2085-4212-b8a0-1915e5e4852a, !- Wednesday Schedule:Day Name
  577b8b11-9ca1-4a3c-a535-22eb28eda6a7, !- Thursday Schedule:Day Name
  f6c0290b-f168-4f71-a3e5-9d39f792f41a, !- Friday Schedule:Day Name
  e4820338-eadc-4991-9d79-561da2ff5540, !- Saturday Schedule:Day Name
  93a13f0a-5453-43bf-a4cc-f7758c70d85d, !- Holiday Schedule:Day Name
  93a13f0a-5453-43bf-a4cc-f7758c70d85d, !- SummerDesignDay Schedule:Day Name
  93a13f0a-5453-43bf-a4cc-f7758c70d85d, !- WinterDesignDay Schedule:Day Name
  93a13f0a-5453-43bf-a4cc-f7758c70d85d, !- CustomDay1 Schedule:Day Name
  93a13f0a-5453-43bf-a4cc-f7758c70d85d; !- CustomDay2 Schedule:Day Name

Schedule:Week:Daily, NatVentAvail_Uhall_0_2,
  12e0b064-d9bd-4e15-bfdf-feaf6bab5c2a, !- Sunday Schedule:Day Name
  0d4d7cef-0c09-494d-bd70-30b315ba6317, !- Monday Schedule:Day Name
  577b8b11-9ca1-4a3c-a535-22eb28eda6a7, !- Tuesday Schedule:Day Name
  39102e39-9f37-4643-a8d7-831e45734003, !- Wednesday Schedule:Day Name
  8872b3b9-6b74-4764-9203-c7af2d8d7e58, !- Thursday Schedule:Day Name
  5c59df08-4e01-4b74-b762-5e1f38ab7e75, !- Friday Schedule:Day Name
  955c474c-94ec-4041-9b5b-626578bdde5e, !- Saturday Schedule:Day Name
  12e0b064-d9bd-4e15-bfdf-feaf6bab5c2a, !- Holiday Schedule:Day Name
  12e0b064-d9bd-4e15-bfdf-feaf6bab5c2a, !- SummerDesignDay Schedule:Day Name
  12e0b064-d9bd-4e15-bfdf-feaf6bab5c2a, !- WinterDesignDay Schedule:Day Name
  12e0b064-d9bd-4e15-bfdf-feaf6bab5c2a, !- CustomDay1 Schedule:Day Name
  12e0b064-d9bd-4e15-bfdf-feaf6bab5c2a; !- CustomDay2 Schedule:Day Name

Schedule:Week:Daily, NatVentAvail_Uhall_0_3,
  fca18aea-ae3f-483f-a880-4a6e60d3d69b, !- Sunday Schedule:Day Name
  33bcaca4-d62e-4873-9205-4194c9205e9a, !- Monday Schedule:Day Name
  9d69d1fb-89ec-40e5-a0a3-dc124eee0b6d, !- Tuesday Schedule:Day Name
  6acdcc98-a2eb-4fca-89b9-e4101c7bbca2, !- Wednesday Schedule:Day Name
  9eb614cf-cbeb-45bc-b212-fec050e18418, !- Thursday Schedule:Day Name
  242caa8b-292f-4fd6-83fe-2419b4fcbaa0, !- Friday Schedule:Day Name
  57bc117e-511c-463d-a84e-62161f8eea0d, !- Saturday Schedule:Day Name
  fca18aea-ae3f-483f-a880-4a6e60d3d69b, !- Holiday Schedule:Day Name
  fca18aea-ae3f-483f-a880-4a6e60d3d69b, !- SummerDesignDay Schedule:Day Name
  fca18aea-ae3f-483f-a880-4a6e60d3d69b, !- WinterDesignDay Schedule:Day Name
  fca18aea-ae3f-483f-a880-4a6e60d3d69b, !- CustomDay1 Schedule:Day Name
  fca18aea-ae3f-483f-a880-4a6e60d3d69b; !- CustomDay2 Schedule:Day Name

Schedule:Week:Daily, NatVentAvail_Uhall_0_4,
  d462cfdc-ceb4-444a-ab17-58dc5313c741, !- Sunday Schedule:Day Name
  78571d4b-901b-4394-807b-3ef781ed1552, !- Monday Schedule:Day Name
  d736b063-5ba9-47a6-8a76-caa50a315da6, !- Tuesday Schedule:Day Name
  153f513e-a50a-4279-a93e-526f5ad599b4, !- Wednesday Schedule:Day Name
  1bd28044-60ce-4fda-ac99-fdc492d57fda, !- Thursday Schedule:Day Name
  06429072-9f5b-426d-96f2-a6e21612ca66, !- Friday Schedule:Day Name
  78571d4b-901b-4394-807b-3ef781ed1552, !- Saturday Schedule:Day Name
  d462cfdc-ceb4-444a-ab17-58dc5313c741, !- Holiday Schedule:Day Name
  d462cfdc-ceb4-444a-ab17-58dc5313c741, !- SummerDesignDay Schedule:Day Name
  d462cfdc-ceb4-444a-ab17-58dc5313c741, !- WinterDesignDay Schedule:Day Name
  d462cfdc-ceb4-444a-ab17-58dc5313c741, !- CustomDay1 Schedule:Day Name
  d462cfdc-ceb4-444a-ab17-58dc5313c741; !- CustomDay2 Schedule:Day Name

Schedule:Week:Daily, NatVentAvail_Uhall_0_5,
  f5ae07b9-4e0e-4793-80ce-39d2ed8dcdfd, !- Sunday Schedule:Day Name
  36b3e3c3-761e-468a-8db3-e94200cdddae, !- Monday Schedule:Day Name
  006a399c-14a9-4c2b-bffb-193928b4ea7f, !- Tuesday Schedule:Day Name
  c06d4321-f35a-4a3d-89ed-7400a32f1a98, !- Wednesday Schedule:Day Name
  4b47e6ec-f45b-473b-8c51-71b213485b8b, !- Thursday Schedule:Day Name
  232de2d6-8b68-449a-8efd-5c0979cc6e71, !- Friday Schedule:Day Name
  f6d276fd-bb70-413e-bf26-ebf5b835cbef, !- Saturday Schedule:Day Name
  f5ae07b9-4e0e-4793-80ce-39d2ed8dcdfd, !- Holiday Schedule:Day Name
  f5ae07b9-4e0e-4793-80ce-39d2ed8dcdfd, !- SummerDesignDay Schedule:Day Name
  f5ae07b9-4e0e-4793-80ce-39d2ed8dcdfd, !- WinterDesignDay Schedule:Day Name
  f5ae07b9-4e0e-4793-80ce-39d2ed8dcdfd, !- CustomDay1 Schedule:Day Name
  f5ae07b9-4e0e-4793-80ce-39d2ed8dcdfd; !- CustomDay2 Schedule:Day Name

Schedule:Week:Daily, NatVentAvail_Uhall_0_6,
  c13028d9-af3b-431b-aa8b-efb87829d8f1, !- Sunday Schedule:Day Name
  9e9e7059-73f8-4409-8d30-6832d868240e, !- Monday Schedule:Day Name
  bf53ff28-cf6a-477a-b63f-36e9e53f5c6f, !- Tuesday Schedule:Day Name
  c895807a-3d21-4e76-a36f-ecd21fa94e83, !- Wednesday Schedule:Day Name
  037318f9-4800-44ab-bd47-414e27741afd, !- Thursday Schedule:Day Name
  334274d6-626b-4fa3-be2b-e2ee557d7934, !- Friday Schedule:Day Name
  42d46cba-7990-4cfb-b059-e0f80acdc77b, !- Saturday Schedule:Day Name
  c13028d9-af3b-431b-aa8b-efb87829d8f1, !- Holiday Schedule:Day Name
  c13028d9-af3b-431b-aa8b-efb87829d8f1, !- SummerDesignDay Schedule:Day Name
  c13028d9-af3b-431b-aa8b-efb87829d8f1, !- WinterDesignDay Schedule:Day Name
  c13028d9-af3b-431b-aa8b-efb87829d8f1, !- CustomDay1 Schedule:Day Name
  c13028d9-af3b-431b-aa8b-efb87829d8f1; !- CustomDay2 Schedule:Day Name

Schedule:Week:Daily, NatVentAvail_Uhall_0_7,
  69fa762c-876c-4541-9587-764d1f9b7212, !- Sunday Schedule:Day Name
  4d9686c7-c11b-4d68-8862-4696d2e5cbfa, !- Monday Schedule:Day Name
  2352ef0e-d8f8-4a3e-aca4-5dd024985782, !- Tuesday Schedule:Day Name
  3644d9d3-bc8b-4ed5-8779-a4c642d42942, !- Wednesday Schedule:Day Name
  b3235b2a-a6cb-43f0-ac05-48e7652d6d96, !- Thursday Schedule:Day Name
  18a3bd5f-47a6-4892-8076-323b2be1ca53, !- Friday Schedule:Day Name
  85ff0050-29cb-46e8-a5eb-cabda52b50aa, !- Saturday Schedule:Day Name
  69fa762c-876c-4541-9587-764d1f9b7212, !- Holiday Schedule:Day Name
  69fa762c-876c-4541-9587-764d1f9b7212, !- SummerDesignDay Schedule:Day Name
  69fa762c-876c-4541-9587-764d1f9b7212, !- WinterDesignDay Schedule:Day Name
  69fa762c-876c-4541-9587-764d1f9b7212, !- CustomDay1 Schedule:Day Name
  69fa762c-876c-4541-9587-764d1f9b7212; !- CustomDay2 Schedule:Day Name

Schedule:Week:Daily, NatVentAvail_Uhall_0_8,
  ae1ecf15-1084-4e47-88a4-f17c3a49f46b, !- Sunday Schedule:Day Name
  8f1c3262-e522-4f94-a2ae-299d9c6a7196, !- Monday Schedule:Day Name
  e5edf7e0-5368-42f5-95af-c216270d9659, !- Tuesday Schedule:Day Name
  b5d357a1-8314-43e8-a10e-bc74d087c04f, !- Wednesday Schedule:Day Name
  1a4d0a5a-1133-47c0-9b7d-b36d9e2b4071, !- Thursday Schedule:Day Name
  066fd758-c551-483f-a112-adf7aa8fb0a6, !- Friday Schedule:Day Name
  05a9b5f6-810d-47a2-a3ed-fe107d475e08, !- Saturday Schedule:Day Name
  ae1ecf15-1084-4e47-88a4-f17c3a49f46b, !- Holiday Schedule:Day Name
  ae1ecf15-1084-4e47-88a4-f17c3a49f46b, !- SummerDesignDay Schedule:Day Name
  ae1ecf15-1084-4e47-88a4-f17c3a49f46b, !- WinterDesignDay Schedule:Day Name
  ae1ecf15-1084-4e47-88a4-f17c3a49f46b, !- CustomDay1 Schedule:Day Name
  ae1ecf15-1084-4e47-88a4-f17c3a49f46b; !- CustomDay2 Schedule:Day Name

Schedule:Week:Daily, NatVentAvail_Uhall_0_9,
  b5ff56aa-d027-42e1-8063-1a4b9b949efa, !- Sunday Schedule:Day Name
  3fbb4b4b-7d12-4c38-b141-6a57f31a8585, !- Monday Schedule:Day Name
  05a9b5f6-810d-47a2-a3ed-fe107d475e08, !- Tuesday Schedule:Day Name
  9d6c9c50-e997-44db-adb6-a0ac55039b57, !- Wednesday Schedule:Day Name
  9be0e496-c445-4172-aaa3-8a0c3828cc00, !- Thursday Schedule:Day Name
  a25a4cb3-8277-466d-bc28-6e34a6a1bf11, !- Friday Schedule:Day Name
  fb2bd9ce-6e85-4f82-824a-344e0373d4f4, !- Saturday Schedule:Day Name
  b5ff56aa-d027-42e1-8063-1a4b9b949efa, !- Holiday Schedule:Day Name
  b5ff56aa-d027-42e1-8063-1a4b9b949efa, !- SummerDesignDay Schedule:Day Name
  b5ff56aa-d027-42e1-8063-1a4b9b949efa, !- WinterDesignDay Schedule:Day Name
  b5ff56aa-d027-42e1-8063-1a4b9b949efa, !- CustomDay1 Schedule:Day Name
  b5ff56aa-d027-42e1-8063-1a4b9b949efa; !- CustomDay2 Schedule:Day Name

Schedule:Week:Daily, NatVentAvail_Uhall_0_10,
  a24bd756-5db2-4730-a3ff-4bac1dc508e8, !- Sunday Schedule:Day Name
  05a9b5f6-810d-47a2-a3ed-fe107d475e08, !- Monday Schedule:Day Name
  93acc58e-2984-477b-96ec-e6b5e4bd9964, !- Tuesday Schedule:Day Name
  4c4025aa-1b59-4673-a211-13a43275a5ce, !- Wednesday Schedule:Day Name
  bbfd8704-3f12-452f-a2de-e789eb264e7d, !- Thursday Schedule:Day Name
  69c778ee-ad82-4a17-ae32-eec0acce2ed4, !- Friday Schedule:Day Name
  3e314de4-fed0-4109-bcf1-40dd21c43e1f, !- Saturday Schedule:Day Name
  a24bd756-5db2-4730-a3ff-4bac1dc508e8, !- Holiday Schedule:Day Name
  a24bd756-5db2-4730-a3ff-4bac1dc508e8, !- SummerDesignDay Schedule:Day Name
  a24bd756-5db2-4730-a3ff-4bac1dc508e8, !- WinterDesignDay Schedule:Day Name
  a24bd756-5db2-4730-a3ff-4bac1dc508e8, !- CustomDay1 Schedule:Day Name
  a24bd756-5db2-4730-a3ff-4bac1dc508e8; !- CustomDay2 Schedule:Day Name

Schedule:Week:Daily, NatVentAvail_Uhall_0_11,
  05a9b5f6-810d-47a2-a3ed-fe107d475e08, !- Sunday Schedule:Day Name
  e7872297-94a7-4e20-bf98-ba976dddfc42, !- Monday Schedule:Day Name
  c9ddcc8f-a62a-4196-ac9a-cbf49597c9bd, !- Tuesday Schedule:Day Name
  58d47014-3902-404f-85a6-8752349e91da, !- Wednesday Schedule:Day Name
  0e386a50-967a-4e45-9722-5726dc8b3d5c, !- Thursday Schedule:Day Name
  1ec70d49-c478-47f6-8d83-612ad67377bc, !- Friday Schedule:Day Name
  456b7953-78fc-427c-b887-cc51dd529c12, !- Saturday Schedule:Day Name
  05a9b5f6-810d-47a2-a3ed-fe107d475e08, !- Holiday Schedule:Day Name
  05a9b5f6-810d-47a2-a3ed-fe107d475e08, !- SummerDesignDay Schedule:Day Name
  05a9b5f6-810d-47a2-a3ed-fe107d475e08, !- WinterDesignDay Schedule:Day Name
  05a9b5f6-810d-47a2-a3ed-fe107d475e08, !- CustomDay1 Schedule:Day Name
  05a9b5f6-810d-47a2-a3ed-fe107d475e08; !- CustomDay2 Schedule:Day Name

Schedule:Week:Daily, NatVentAvail_Uhall_0_12,
  1449c8e7-5cf6-408e-a04d-d48553cc021b, !- Sunday Schedule:Day Name
  dc6cbf57-bb9a-42d2-8180-9084d0853010, !- Monday Schedule:Day Name
  ac7a5315-6f59-453e-9a04-592885788e47, !- Tuesday Schedule:Day Name
  8799438e-f491-4fd7-8f17-76c7f29f8963, !- Wednesday Schedule:Day Name
  78e269ee-e15a-4aa0-9b9c-6fd5be1c0f96, !- Thursday Schedule:Day Name
  4bc56e08-4805-48ed-ac3c-3ba30fb5cf02, !- Friday Schedule:Day Name
  66ae71b3-5fef-4788-89ea-ead35eab32b6, !- Saturday Schedule:Day Name
  1449c8e7-5cf6-408e-a04d-d48553cc021b, !- Holiday Schedule:Day Name
  1449c8e7-5cf6-408e-a04d-d48553cc021b, !- SummerDesignDay Schedule:Day Name
  1449c8e7-5cf6-408e-a04d-d48553cc021b, !- WinterDesignDay Schedule:Day Name
  1449c8e7-5cf6-408e-a04d-d48553cc021b, !- CustomDay1 Schedule:Day Name
  1449c8e7-5cf6-408e-a04d-d48553cc021b; !- CustomDay2 Schedule:Day Name

Schedule:Week:Daily, NatVentAvail_Uhall_0_13,
  f6117868-4076-436a-aa05-60d556583e42, !- Sunday Schedule:Day Name
  0bdd16f8-71b7-49d3-8f41-14c0188b070c, !- Monday Schedule:Day Name
  90210d46-59be-4b5e-9d5a-54b2e3817cc9, !- Tuesday Schedule:Day Name
  e5194301-1140-4e8a-8045-4166d4c1d656, !- Wednesday Schedule:Day Name
  272ffa50-bdf1-4916-9a10-0ef0e99bee37, !- Thursday Schedule:Day Name
  5ce848ea-7873-4464-ad07-784a31485b0d, !- Friday Schedule:Day Name
  0c8c8c70-1e18-4386-ada0-b9fce5886457, !- Saturday Schedule:Day Name
  f6117868-4076-436a-aa05-60d556583e42, !- Holiday Schedule:Day Name
  f6117868-4076-436a-aa05-60d556583e42, !- SummerDesignDay Schedule:Day Name
  f6117868-4076-436a-aa05-60d556583e42, !- WinterDesignDay Schedule:Day Name
  f6117868-4076-436a-aa05-60d556583e42, !- CustomDay1 Schedule:Day Name
  f6117868-4076-436a-aa05-60d556583e42; !- CustomDay2 Schedule:Day Name

Schedule:Week:Daily, NatVentAvail_Uhall_0_14,
  beb91ba3-486f-4b92-9567-8b6934d09ce1, !- Sunday Schedule:Day Name
  9ec6fbab-d7d9-4848-83fa-96ad669310ca, !- Monday Schedule:Day Name
  c1ca12dd-965b-430f-85ea-fc69450b76d0, !- Tuesday Schedule:Day Name
  55a45316-a5b5-43f9-ba11-1434bb3350c8, !- Wednesday Schedule:Day Name
  c5fb7837-cee5-4773-8f23-d572d38e60d4, !- Thursday Schedule:Day Name
  6d0628d5-a701-4b8d-92b0-0a0db2d5582b, !- Friday Schedule:Day Name
  87c9f976-7bef-49ca-bcc1-24d1c82ba78e, !- Saturday Schedule:Day Name
  beb91ba3-486f-4b92-9567-8b6934d09ce1, !- Holiday Schedule:Day Name
  beb91ba3-486f-4b92-9567-8b6934d09ce1, !- SummerDesignDay Schedule:Day Name
  beb91ba3-486f-4b92-9567-8b6934d09ce1, !- WinterDesignDay Schedule:Day Name
  beb91ba3-486f-4b92-9567-8b6934d09ce1, !- CustomDay1 Schedule:Day Name
  beb91ba3-486f-4b92-9567-8b6934d09ce1; !- CustomDay2 Schedule:Day Name

Schedule:Week:Daily, NatVentAvail_Uhall_0_15,
  c619797e-8c78-4ec9-aab0-8db9ae88e1b3, !- Sunday Schedule:Day Name
  15c48057-cdaa-4c1e-b34d-b6a3ace96618, !- Monday Schedule:Day Name
  43ea1b43-3d18-4afb-af93-784f6ab0beb4, !- Tuesday Schedule:Day Name
  97285481-3ed5-409f-8473-52abdef88083, !- Wednesday Schedule:Day Name
  63abdeba-3697-46d4-b716-3c9091515307, !- Thursday Schedule:Day Name
  36577367-8818-4d01-a969-cc43c089bfce, !- Friday Schedule:Day Name
  c732a36e-6452-4bb9-a8cc-f34c6cdf0164, !- Saturday Schedule:Day Name
  c619797e-8c78-4ec9-aab0-8db9ae88e1b3, !- Holiday Schedule:Day Name
  c619797e-8c78-4ec9-aab0-8db9ae88e1b3, !- SummerDesignDay Schedule:Day Name
  c619797e-8c78-4ec9-aab0-8db9ae88e1b3, !- WinterDesignDay Schedule:Day Name
  c619797e-8c78-4ec9-aab0-8db9ae88e1b3, !- CustomDay1 Schedule:Day Name
  c619797e-8c78-4ec9-aab0-8db9ae88e1b3; !- CustomDay2 Schedule:Day Name

Schedule:Week:Daily, NatVentAvail_Uhall_0_16,
  05c52a12-90f0-4a08-bc72-a0a75808271d, !- Sunday Schedule:Day Name
  1262f729-b5bd-4000-b097-076664bb81f3, !- Monday Schedule:Day Name
  830ba331-8fea-43ab-8cdd-315891035a0a, !- Tuesday Schedule:Day Name
  6a059418-7a64-4ab3-acba-69e1f18d83f2, !- Wednesday Schedule:Day Name
  16af22e6-c4d5-4200-b5b4-0ee0870e6ac9, !- Thursday Schedule:Day Name
  5e089451-4814-41ea-bf13-6d7c503ce9b7, !- Friday Schedule:Day Name
  b44b91d7-2ca5-4663-947f-0a39daf67ff1, !- Saturday Schedule:Day Name
  05c52a12-90f0-4a08-bc72-a0a75808271d, !- Holiday Schedule:Day Name
  05c52a12-90f0-4a08-bc72-a0a75808271d, !- SummerDesignDay Schedule:Day Name
  05c52a12-90f0-4a08-bc72-a0a75808271d, !- WinterDesignDay Schedule:Day Name
  05c52a12-90f0-4a08-bc72-a0a75808271d, !- CustomDay1 Schedule:Day Name
  05c52a12-90f0-4a08-bc72-a0a75808271d; !- CustomDay2 Schedule:Day Name

Schedule:Week:Daily, NatVentAvail_Uhall_0_17,
  343997f4-304e-4a60-99aa-0b12ea5d9bfc, !- Sunday Schedule:Day Name
  be8c7df5-c9eb-4776-b5e8-cd2f2f6af068, !- Monday Schedule:Day Name
  f8c0ebfd-63bb-488d-bc0d-096c7455feba, !- Tuesday Schedule:Day Name
  8d703f3d-682d-446b-be05-2317396a9aec, !- Wednesday Schedule:Day Name
  1cb607fe-b668-46d6-8b1d-a0c4b0c1e679, !- Thursday Schedule:Day Name
  c487122f-645f-4a16-a368-7377901b233b, !- Friday Schedule:Day Name
  7dc89d92-691c-48ac-b993-a26a2f9ad274, !- Saturday Schedule:Day Name
  343997f4-304e-4a60-99aa-0b12ea5d9bfc, !- Holiday Schedule:Day Name
  343997f4-304e-4a60-99aa-0b12ea5d9bfc, !- SummerDesignDay Schedule:Day Name
  343997f4-304e-4a60-99aa-0b12ea5d9bfc, !- WinterDesignDay Schedule:Day Name
  343997f4-304e-4a60-99aa-0b12ea5d9bfc, !- CustomDay1 Schedule:Day Name
  343997f4-304e-4a60-99aa-0b12ea5d9bfc; !- CustomDay2 Schedule:Day Name

Schedule:Week:Daily, NatVentAvail_Uhall_0_18,
  01335171-d1d4-4a3b-86d6-7d2f3df92008, !- Sunday Schedule:Day Name
  b34f0eb2-90cd-43d1-823a-626b11ca9441, !- Monday Schedule:Day Name
  234a80dd-cecc-47b9-9d6e-1de514a08926, !- Tuesday Schedule:Day Name
  01335171-d1d4-4a3b-86d6-7d2f3df92008, !- Wednesday Schedule:Day Name
  c34010a0-cd20-4836-a2ce-547b23c9e2cb, !- Thursday Schedule:Day Name
  7c986be8-eda2-4f04-ab15-49d0f8c09470, !- Friday Schedule:Day Name
  2d25294e-69e3-4af4-af79-82d4f7d021e2, !- Saturday Schedule:Day Name
  01335171-d1d4-4a3b-86d6-7d2f3df92008, !- Holiday Schedule:Day Name
  01335171-d1d4-4a3b-86d6-7d2f3df92008, !- SummerDesignDay Schedule:Day Name
  01335171-d1d4-4a3b-86d6-7d2f3df92008, !- WinterDesignDay Schedule:Day Name
  01335171-d1d4-4a3b-86d6-7d2f3df92008, !- CustomDay1 Schedule:Day Name
  01335171-d1d4-4a3b-86d6-7d2f3df92008; !- CustomDay2 Schedule:Day Name

Schedule:Week:Daily, NatVentAvail_Uhall_0_19,
  ea94b579-91f6-428e-aca5-84c0627131d9, !- Sunday Schedule:Day Name
  8858cd73-b079-49c4-b992-cf25b8aad62f, !- Monday Schedule:Day Name
  4e01d101-2c15-43ea-93b6-f84307259577, !- Tuesday Schedule:Day Name
  577d8bf8-07a3-4fce-9596-48f5057fed9e, !- Wednesday Schedule:Day Name
  85275a0a-f92a-4921-a728-82bf84d55d10, !- Thursday Schedule:Day Name
  4daf1f13-e36d-4509-9d57-3c483b7daa69, !- Friday Schedule:Day Name
  d00c75e3-6b55-4346-9201-494d92ade5e0, !- Saturday Schedule:Day Name
  ea94b579-91f6-428e-aca5-84c0627131d9, !- Holiday Schedule:Day Name
  ea94b579-91f6-428e-aca5-84c0627131d9, !- SummerDesignDay Schedule:Day Name
  ea94b579-91f6-428e-aca5-84c0627131d9, !- WinterDesignDay Schedule:Day Name
  ea94b579-91f6-428e-aca5-84c0627131d9, !- CustomDay1 Schedule:Day Name
  ea94b579-91f6-428e-aca5-84c0627131d9; !- CustomDay2 Schedule:Day Name

Schedule:Week:Daily, NatVentAvail_Uhall_0_20,
  4d67df63-3c53-4893-9025-b4f96ac69288, !- Sunday Schedule:Day Name
  58ba47c4-48d9-4e02-a9db-d2e731bfd943, !- Monday Schedule:Day Name
  ea94b579-91f6-428e-aca5-84c0627131d9, !- Tuesday Schedule:Day Name
  8316bbfc-87ed-4bd4-976c-2a06d9dd7673, !- Wednesday Schedule:Day Name
  9b7994fd-9aac-488b-9f1d-791f5b1483ad, !- Thursday Schedule:Day Name
  d80fda9c-559b-4ae2-8eb9-ce5cc5cafe1c, !- Friday Schedule:Day Name
  010a44cc-3b6c-4e6f-9cd2-fb3767aa58db, !- Saturday Schedule:Day Name
  4d67df63-3c53-4893-9025-b4f96ac69288, !- Holiday Schedule:Day Name
  4d67df63-3c53-4893-9025-b4f96ac69288, !- SummerDesignDay Schedule:Day Name
  4d67df63-3c53-4893-9025-b4f96ac69288, !- WinterDesignDay Schedule:Day Name
  4d67df63-3c53-4893-9025-b4f96ac69288, !- CustomDay1 Schedule:Day Name
  4d67df63-3c53-4893-9025-b4f96ac69288; !- CustomDay2 Schedule:Day Name

Schedule:Week:Daily, NatVentAvail_Uhall_0_21,
  98a3a4f3-3f47-4515-9283-eef103d64e59, !- Sunday Schedule:Day Name
  36b3e3c3-761e-468a-8db3-e94200cdddae, !- Monday Schedule:Day Name
  1905fa12-d31d-4158-b61b-f9c0c9f3be79, !- Tuesday Schedule:Day Name
  136ad646-8ec3-4805-849a-e9ef29558a26, !- Wednesday Schedule:Day Name
  9a356ddb-dc14-4f16-8ea2-ec67598ed0c8, !- Thursday Schedule:Day Name
  c767553a-97e1-4b39-8703-f20b3cf654ab, !- Friday Schedule:Day Name
  e7f5cb95-7a3c-45ff-85ef-78ffada0b6de, !- Saturday Schedule:Day Name
  98a3a4f3-3f47-4515-9283-eef103d64e59, !- Holiday Schedule:Day Name
  98a3a4f3-3f47-4515-9283-eef103d64e59, !- SummerDesignDay Schedule:Day Name
  98a3a4f3-3f47-4515-9283-eef103d64e59, !- WinterDesignDay Schedule:Day Name
  98a3a4f3-3f47-4515-9283-eef103d64e59, !- CustomDay1 Schedule:Day Name
  98a3a4f3-3f47-4515-9283-eef103d64e59; !- CustomDay2 Schedule:Day Name

Schedule:Week:Daily, NatVentAvail_Uhall_0_22,
  b610989e-2758-475f-9f85-ccb0c86ddb02, !- Sunday Schedule:Day Name
  590fae25-cfea-4fe1-bd63-a2702dc7ba06, !- Monday Schedule:Day Name
  0fa6b8d4-eb48-462a-a77d-89cad7ed56fd, !- Tuesday Schedule:Day Name
  47e5b6e4-65b1-49c8-9a8e-41ffe943bb0c, !- Wednesday Schedule:Day Name
  12e9f7ea-fed1-4241-a5b7-e65aceae6cc3, !- Thursday Schedule:Day Name
  aaf1e1fa-7e53-470f-801d-3128046d0bec, !- Friday Schedule:Day Name
  43b29f55-281e-49cd-b712-60673e09300b, !- Saturday Schedule:Day Name
  b610989e-2758-475f-9f85-ccb0c86ddb02, !- Holiday Schedule:Day Name
  b610989e-2758-475f-9f85-ccb0c86ddb02, !- SummerDesignDay Schedule:Day Name
  b610989e-2758-475f-9f85-ccb0c86ddb02, !- WinterDesignDay Schedule:Day Name
  b610989e-2758-475f-9f85-ccb0c86ddb02, !- CustomDay1 Schedule:Day Name
  b610989e-2758-475f-9f85-ccb0c86ddb02; !- CustomDay2 Schedule:Day Name

Schedule:Week:Daily, NatVentAvail_Uhall_0_23,
  347714f8-8455-484d-bdf5-c625e010c198, !- Sunday Schedule:Day Name
  0572ef20-a390-479e-aac2-e2bd75119206, !- Monday Schedule:Day Name
  13c056e4-98f7-4954-87d5-c9f95b12894a, !- Tuesday Schedule:Day Name
  34dfd50b-91f9-46b8-949f-d66a4fab3e53, !- Wednesday Schedule:Day Name
  c7350810-e79f-4fcf-ae44-969a8aaa2427, !- Thursday Schedule:Day Name
  08f556b0-6eed-4a21-af0c-ad8b9d1763de, !- Friday Schedule:Day Name
  578dc937-cb4e-41e2-8c60-884323978601, !- Saturday Schedule:Day Name
  347714f8-8455-484d-bdf5-c625e010c198, !- Holiday Schedule:Day Name
  347714f8-8455-484d-bdf5-c625e010c198, !- SummerDesignDay Schedule:Day Name
  347714f8-8455-484d-bdf5-c625e010c198, !- WinterDesignDay Schedule:Day Name
  347714f8-8455-484d-bdf5-c625e010c198, !- CustomDay1 Schedule:Day Name
  347714f8-8455-484d-bdf5-c625e010c198; !- CustomDay2 Schedule:Day Name

Schedule:Week:Daily, NatVentAvail_Uhall_0_24,
  d3b7cb04-da91-4b46-8091-ccbdfe5f455c, !- Sunday Schedule:Day Name
  f579e0a6-c022-4fed-9fb4-2855e2aa9918, !- Monday Schedule:Day Name
  95bc8792-7927-4679-a6e8-41c13d626097, !- Tuesday Schedule:Day Name
  331f02c9-058b-423a-87a0-ffaa14d87081, !- Wednesday Schedule:Day Name
  83799835-b422-48c9-92bc-706e9ecc9e0d, !- Thursday Schedule:Day Name
  3867379b-6f27-4bb4-984f-a16ed2628278, !- Friday Schedule:Day Name
  08f1c9ac-0310-4a40-ad3d-d4555b1c5f05, !- Saturday Schedule:Day Name
  d3b7cb04-da91-4b46-8091-ccbdfe5f455c, !- Holiday Schedule:Day Name
  d3b7cb04-da91-4b46-8091-ccbdfe5f455c, !- SummerDesignDay Schedule:Day Name
  d3b7cb04-da91-4b46-8091-ccbdfe5f455c, !- WinterDesignDay Schedule:Day Name
  d3b7cb04-da91-4b46-8091-ccbdfe5f455c, !- CustomDay1 Schedule:Day Name
  d3b7cb04-da91-4b46-8091-ccbdfe5f455c; !- CustomDay2 Schedule:Day Name

Schedule:Week:Daily, NatVentAvail_Uhall_0_25,
  e3ee9ee9-e617-4dde-883e-eeee9b351c1c, !- Sunday Schedule:Day Name
  540576fc-90d0-4581-9a79-86f8c30c2684, !- Monday Schedule:Day Name
  170add1a-4e6b-4bc4-a46f-dc19ef3f801b, !- Tuesday Schedule:Day Name
  67e945bf-9fb8-4855-a260-ffce3530f310, !- Wednesday Schedule:Day Name
  4fcdabdc-ccfd-4b2a-a043-e949d0ba5364, !- Thursday Schedule:Day Name
  8fa364ed-c68c-469a-8511-61080ffe9db9, !- Friday Schedule:Day Name
  a2931f4f-3854-4a85-97e5-79317f6a63c6, !- Saturday Schedule:Day Name
  e3ee9ee9-e617-4dde-883e-eeee9b351c1c, !- Holiday Schedule:Day Name
  e3ee9ee9-e617-4dde-883e-eeee9b351c1c, !- SummerDesignDay Schedule:Day Name
  e3ee9ee9-e617-4dde-883e-eeee9b351c1c, !- WinterDesignDay Schedule:Day Name
  e3ee9ee9-e617-4dde-883e-eeee9b351c1c, !- CustomDay1 Schedule:Day Name
  e3ee9ee9-e617-4dde-883e-eeee9b351c1c; !- CustomDay2 Schedule:Day Name

Schedule:Week:Daily, NatVentAvail_Uhall_0_26,
  ccc2258c-00a8-48f0-8890-b4debab9acf6, !- Sunday Schedule:Day Name
  7f098360-c504-4f3e-9a81-bed948809a9d, !- Monday Schedule:Day Name
  b3cdc2c3-ac1a-4c8d-87ba-f02d244a4d4c, !- Tuesday Schedule:Day Name
  a1458dca-384d-42ac-8f2d-b5dce03e2cc4, !- Wednesday Schedule:Day Name
  692e2b9e-37f8-491f-859b-6e95e177d669, !- Thursday Schedule:Day Name
  c3a847de-318b-4e50-933f-cba877c46dc5, !- Friday Schedule:Day Name
  0787d4f0-03c2-476e-95d8-e98ed7f11f4e, !- Saturday Schedule:Day Name
  ccc2258c-00a8-48f0-8890-b4debab9acf6, !- Holiday Schedule:Day Name
  ccc2258c-00a8-48f0-8890-b4debab9acf6, !- SummerDesignDay Schedule:Day Name
  ccc2258c-00a8-48f0-8890-b4debab9acf6, !- WinterDesignDay Schedule:Day Name
  ccc2258c-00a8-48f0-8890-b4debab9acf6, !- CustomDay1 Schedule:Day Name
  ccc2258c-00a8-48f0-8890-b4debab9acf6; !- CustomDay2 Schedule:Day Name

Schedule:Week:Daily, NatVentAvail_Uhall_0_27,
  c072c81d-66f9-4cb2-817b-b70decad6450, !- Sunday Schedule:Day Name
  f9a6a370-91c3-45ad-83b0-530b17a80803, !- Monday Schedule:Day Name
  aa28c969-07c4-48d3-b3c1-d907855ef2f1, !- Tuesday Schedule:Day Name
  38b85b12-ce32-40ba-8da2-f44b95ca2d21, !- Wednesday Schedule:Day Name
  6d824af6-b492-49e7-8b9c-64c8ebc3fe4d, !- Thursday Schedule:Day Name
  a21c18ef-e109-4922-b7a1-520cf68d9efe, !- Friday Schedule:Day Name
  265e953f-ccaf-4800-b35c-04579db085f1, !- Saturday Schedule:Day Name
  c072c81d-66f9-4cb2-817b-b70decad6450, !- Holiday Schedule:Day Name
  c072c81d-66f9-4cb2-817b-b70decad6450, !- SummerDesignDay Schedule:Day Name
  c072c81d-66f9-4cb2-817b-b70decad6450, !- WinterDesignDay Schedule:Day Name
  c072c81d-66f9-4cb2-817b-b70decad6450, !- CustomDay1 Schedule:Day Name
  c072c81d-66f9-4cb2-817b-b70decad6450; !- CustomDay2 Schedule:Day Name

Schedule:Week:Daily, NatVentAvail_Uhall_0_28,
  edd7a84e-eda9-484e-8d83-c278fc9f015e, !- Sunday Schedule:Day Name
  ac85824e-2cd9-411c-8bdb-c38b36c1d9f3, !- Monday Schedule:Day Name
  08cdb37d-ae56-4608-85b5-a8be4715f87b, !- Tuesday Schedule:Day Name
  c480b875-3cca-4763-b539-ab3a225a9996, !- Wednesday Schedule:Day Name
  8d703f3d-682d-446b-be05-2317396a9aec, !- Thursday Schedule:Day Name
  8a7f159c-9ff6-4092-bb58-e3acc2b85c6e, !- Friday Schedule:Day Name
  98a3a4f3-3f47-4515-9283-eef103d64e59, !- Saturday Schedule:Day Name
  edd7a84e-eda9-484e-8d83-c278fc9f015e, !- Holiday Schedule:Day Name
  edd7a84e-eda9-484e-8d83-c278fc9f015e, !- SummerDesignDay Schedule:Day Name
  edd7a84e-eda9-484e-8d83-c278fc9f015e, !- WinterDesignDay Schedule:Day Name
  edd7a84e-eda9-484e-8d83-c278fc9f015e, !- CustomDay1 Schedule:Day Name
  edd7a84e-eda9-484e-8d83-c278fc9f015e; !- CustomDay2 Schedule:Day Name

Schedule:Week:Daily, NatVentAvail_Uhall_0_29,
  d4177abb-49e4-4132-bff6-2ed436de6d17, !- Sunday Schedule:Day Name
  b43acea3-779c-47de-9cf5-d899ded07b68, !- Monday Schedule:Day Name
  976c476b-99fb-476c-8a80-1675287f297c, !- Tuesday Schedule:Day Name
  81c89fb5-c389-4096-b43a-58c98456619e, !- Wednesday Schedule:Day Name
  8d703f3d-682d-446b-be05-2317396a9aec, !- Thursday Schedule:Day Name
  8d703f3d-682d-446b-be05-2317396a9aec, !- Friday Schedule:Day Name
  9d498a62-4221-4987-b234-ef22b033a8e2, !- Saturday Schedule:Day Name
  d4177abb-49e4-4132-bff6-2ed436de6d17, !- Holiday Schedule:Day Name
  d4177abb-49e4-4132-bff6-2ed436de6d17, !- SummerDesignDay Schedule:Day Name
  d4177abb-49e4-4132-bff6-2ed436de6d17, !- WinterDesignDay Schedule:Day Name
  d4177abb-49e4-4132-bff6-2ed436de6d17, !- CustomDay1 Schedule:Day Name
  d4177abb-49e4-4132-bff6-2ed436de6d17; !- CustomDay2 Schedule:Day Name

Schedule:Week:Daily, NatVentAvail_Uhall_0_30,
  098761db-fdb3-47d0-b1ac-ec07da6bd236, !- Sunday Schedule:Day Name
  05a9b5f6-810d-47a2-a3ed-fe107d475e08, !- Monday Schedule:Day Name
  325f197f-bd12-4d93-b18c-a0d02835a7ae, !- Tuesday Schedule:Day Name
  5e96859e-2e41-4341-a095-63dd68902827, !- Wednesday Schedule:Day Name
  ed7a5eb6-4e41-4abb-b188-0041f4c39cfc, !- Thursday Schedule:Day Name
  7e5484a0-3be2-465b-b4d9-ebe13fa1c30f, !- Friday Schedule:Day Name
  4bcbde12-6427-4248-a1f5-bef20cc29fa4, !- Saturday Schedule:Day Name
  098761db-fdb3-47d0-b1ac-ec07da6bd236, !- Holiday Schedule:Day Name
  098761db-fdb3-47d0-b1ac-ec07da6bd236, !- SummerDesignDay Schedule:Day Name
  098761db-fdb3-47d0-b1ac-ec07da6bd236, !- WinterDesignDay Schedule:Day Name
  098761db-fdb3-47d0-b1ac-ec07da6bd236, !- CustomDay1 Schedule:Day Name
  098761db-fdb3-47d0-b1ac-ec07da6bd236; !- CustomDay2 Schedule:Day Name

Schedule:Week:Daily, NatVentAvail_Uhall_0_31,
  8fd045c8-19bc-4fb3-be01-19aa50f06da6, !- Sunday Schedule:Day Name
  8316bbfc-87ed-4bd4-976c-2a06d9dd7673, !- Monday Schedule:Day Name
  976c476b-99fb-476c-8a80-1675287f297c, !- Tuesday Schedule:Day Name
  dce8617d-4674-40cb-80fc-bdd84b30efb2, !- Wednesday Schedule:Day Name
  3a2f6fc4-1d8f-4ff0-bd14-166b6dc2a9b9, !- Thursday Schedule:Day Name
  95ed3a54-aa3f-43d6-8d76-e7e7197769d4, !- Friday Schedule:Day Name
  50cc714d-4f9f-40d8-ba50-ad3aebe2ebf5, !- Saturday Schedule:Day Name
  8fd045c8-19bc-4fb3-be01-19aa50f06da6, !- Holiday Schedule:Day Name
  8fd045c8-19bc-4fb3-be01-19aa50f06da6, !- SummerDesignDay Schedule:Day Name
  8fd045c8-19bc-4fb3-be01-19aa50f06da6, !- WinterDesignDay Schedule:Day Name
  8fd045c8-19bc-4fb3-be01-19aa50f06da6, !- CustomDay1 Schedule:Day Name
  8fd045c8-19bc-4fb3-be01-19aa50f06da6; !- CustomDay2 Schedule:Day Name

Schedule:Week:Daily, NatVentAvail_Uhall_0_32,
  d862ddda-6804-4b2d-9cb2-e5d2cc448f89, !- Sunday Schedule:Day Name
  31633279-9979-4c54-9c19-96edb8dc42bb, !- Monday Schedule:Day Name
  fac3c325-2c34-496f-b3ad-1362ead0e820, !- Tuesday Schedule:Day Name
  84375bef-974d-4de8-9e57-46810bf473be, !- Wednesday Schedule:Day Name
  f513b059-772a-4676-bd61-e5f81e2e1659, !- Thursday Schedule:Day Name
  9736293a-0261-49d6-9e11-eabbdd3df04e, !- Friday Schedule:Day Name
  b472dbd5-d94f-4424-8488-8831184dbaf0, !- Saturday Schedule:Day Name
  d862ddda-6804-4b2d-9cb2-e5d2cc448f89, !- Holiday Schedule:Day Name
  d862ddda-6804-4b2d-9cb2-e5d2cc448f89, !- SummerDesignDay Schedule:Day Name
  d862ddda-6804-4b2d-9cb2-e5d2cc448f89, !- WinterDesignDay Schedule:Day Name
  d862ddda-6804-4b2d-9cb2-e5d2cc448f89, !- CustomDay1 Schedule:Day Name
  d862ddda-6804-4b2d-9cb2-e5d2cc448f89; !- CustomDay2 Schedule:Day Name

Schedule:Week:Daily, NatVentAvail_Uhall_0_33,
  33ae2a89-c14e-4efc-ae8a-7d59bbc42b96, !- Sunday Schedule:Day Name
  d180aac4-559e-488c-95de-4584b235e04b, !- Monday Schedule:Day Name
  51203287-4670-43aa-8a95-431797dadcd0, !- Tuesday Schedule:Day Name
  5807cd50-6046-48cb-aa02-0d090f47eb53, !- Wednesday Schedule:Day Name
  c707efdc-4d85-4d2d-88d8-9dd1903177d0, !- Thursday Schedule:Day Name
  1905fa12-d31d-4158-b61b-f9c0c9f3be79, !- Friday Schedule:Day Name
  4817171f-b67e-4810-93d4-982b00e31f43, !- Saturday Schedule:Day Name
  33ae2a89-c14e-4efc-ae8a-7d59bbc42b96, !- Holiday Schedule:Day Name
  33ae2a89-c14e-4efc-ae8a-7d59bbc42b96, !- SummerDesignDay Schedule:Day Name
  33ae2a89-c14e-4efc-ae8a-7d59bbc42b96, !- WinterDesignDay Schedule:Day Name
  33ae2a89-c14e-4efc-ae8a-7d59bbc42b96, !- CustomDay1 Schedule:Day Name
  33ae2a89-c14e-4efc-ae8a-7d59bbc42b96; !- CustomDay2 Schedule:Day Name

Schedule:Week:Daily, NatVentAvail_Uhall_0_34,
  535da9f3-d558-453d-8658-dfbc035df5f2, !- Sunday Schedule:Day Name
  7e07fbc3-17a5-449a-9051-e2731c53b6b8, !- Monday Schedule:Day Name
  e5ca6391-3192-4c0e-8131-34b922f7b05b, !- Tuesday Schedule:Day Name
  ea085aae-cfb9-458a-b44e-2543d749e4b7, !- Wednesday Schedule:Day Name
  65822a8d-3b8b-4dd5-a3a6-fed7917eceb3, !- Thursday Schedule:Day Name
  88d6ce40-4e25-4b43-a255-244c5e1bcf2b, !- Friday Schedule:Day Name
  994e1539-5b68-4bda-8874-32c8db541fa1, !- Saturday Schedule:Day Name
  535da9f3-d558-453d-8658-dfbc035df5f2, !- Holiday Schedule:Day Name
  535da9f3-d558-453d-8658-dfbc035df5f2, !- SummerDesignDay Schedule:Day Name
  535da9f3-d558-453d-8658-dfbc035df5f2, !- WinterDesignDay Schedule:Day Name
  535da9f3-d558-453d-8658-dfbc035df5f2, !- CustomDay1 Schedule:Day Name
  535da9f3-d558-453d-8658-dfbc035df5f2; !- CustomDay2 Schedule:Day Name

Schedule:Week:Daily, NatVentAvail_Uhall_0_35,
  863a519d-f4e1-4fae-8cf1-aed8b35a6580, !- Sunday Schedule:Day Name
  b28a8506-db65-4194-922f-e0abde43d876, !- Monday Schedule:Day Name
  93a13f0a-5453-43bf-a4cc-f7758c70d85d, !- Tuesday Schedule:Day Name
  7ef86b5c-9b7f-4a9e-9991-87fd2a5f750b, !- Wednesday Schedule:Day Name
  42d46cba-7990-4cfb-b059-e0f80acdc77b, !- Thursday Schedule:Day Name
  1c331e92-866b-474d-9399-3259cd9723d4, !- Friday Schedule:Day Name
  bc9f1d86-a230-4e9d-a676-339708063e41, !- Saturday Schedule:Day Name
  863a519d-f4e1-4fae-8cf1-aed8b35a6580, !- Holiday Schedule:Day Name
  863a519d-f4e1-4fae-8cf1-aed8b35a6580, !- SummerDesignDay Schedule:Day Name
  863a519d-f4e1-4fae-8cf1-aed8b35a6580, !- WinterDesignDay Schedule:Day Name
  863a519d-f4e1-4fae-8cf1-aed8b35a6580, !- CustomDay1 Schedule:Day Name
  863a519d-f4e1-4fae-8cf1-aed8b35a6580; !- CustomDay2 Schedule:Day Name

Schedule:Week:Daily, NatVentAvail_Uhall_0_36,
  06b07f90-d514-4df7-a7e0-fe58a0e27f90, !- Sunday Schedule:Day Name
  4d67df63-3c53-4893-9025-b4f96ac69288, !- Monday Schedule:Day Name
  7e4fde1b-e04b-4bef-8593-bec6bb85eaed, !- Tuesday Schedule:Day Name
  2d8ef99a-443f-4ca4-973f-15f3a2ba7165, !- Wednesday Schedule:Day Name
  f4da608f-beb6-4ca2-b88c-dee4ac39c057, !- Thursday Schedule:Day Name
  1e722646-97a1-498e-ac17-13e3a5ff9807, !- Friday Schedule:Day Name
  170add1a-4e6b-4bc4-a46f-dc19ef3f801b, !- Saturday Schedule:Day Name
  06b07f90-d514-4df7-a7e0-fe58a0e27f90, !- Holiday Schedule:Day Name
  06b07f90-d514-4df7-a7e0-fe58a0e27f90, !- SummerDesignDay Schedule:Day Name
  06b07f90-d514-4df7-a7e0-fe58a0e27f90, !- WinterDesignDay Schedule:Day Name
  06b07f90-d514-4df7-a7e0-fe58a0e27f90, !- CustomDay1 Schedule:Day Name
  06b07f90-d514-4df7-a7e0-fe58a0e27f90; !- CustomDay2 Schedule:Day Name

Schedule:Week:Daily, NatVentAvail_Uhall_0_37,
  8d703f3d-682d-446b-be05-2317396a9aec, !- Sunday Schedule:Day Name
  ea6436d4-eb69-4e16-8753-9d64fc9b3721, !- Monday Schedule:Day Name
  48d67f2f-40b9-47df-92ab-33fafd89c037, !- Tuesday Schedule:Day Name
  e1014d88-cc3d-479b-b10b-f2a5b628ae3e, !- Wednesday Schedule:Day Name
  e0d26570-108e-4116-8d2e-ae2befc56af1, !- Thursday Schedule:Day Name
  8872b3b9-6b74-4764-9203-c7af2d8d7e58, !- Friday Schedule:Day Name
  60e6770e-616d-49b7-94fb-9b610c53e99e, !- Saturday Schedule:Day Name
  8d703f3d-682d-446b-be05-2317396a9aec, !- Holiday Schedule:Day Name
  8d703f3d-682d-446b-be05-2317396a9aec, !- SummerDesignDay Schedule:Day Name
  8d703f3d-682d-446b-be05-2317396a9aec, !- WinterDesignDay Schedule:Day Name
  8d703f3d-682d-446b-be05-2317396a9aec, !- CustomDay1 Schedule:Day Name
  8d703f3d-682d-446b-be05-2317396a9aec; !- CustomDay2 Schedule:Day Name

Schedule:Week:Daily, NatVentAvail_Uhall_0_38,
  3906fb5c-dc49-49f7-a24d-36782f420233, !- Sunday Schedule:Day Name
  14096159-9911-4de0-b077-0c3137be9edc, !- Monday Schedule:Day Name
  06b07f90-d514-4df7-a7e0-fe58a0e27f90, !- Tuesday Schedule:Day Name
  82ffc8e3-01a0-48c6-b120-f66219b7995a, !- Wednesday Schedule:Day Name
  a23d93c2-ea68-46e7-8c31-5167e09370df, !- Thursday Schedule:Day Name
  11fbe6fe-4449-45c1-9418-f9f9a3465f88, !- Friday Schedule:Day Name
  fe602572-02a3-492b-a538-fbcf88eb913c, !- Saturday Schedule:Day Name
  3906fb5c-dc49-49f7-a24d-36782f420233, !- Holiday Schedule:Day Name
  3906fb5c-dc49-49f7-a24d-36782f420233, !- SummerDesignDay Schedule:Day Name
  3906fb5c-dc49-49f7-a24d-36782f420233, !- WinterDesignDay Schedule:Day Name
  3906fb5c-dc49-49f7-a24d-36782f420233, !- CustomDay1 Schedule:Day Name
  3906fb5c-dc49-49f7-a24d-36782f420233; !- CustomDay2 Schedule:Day Name

Schedule:Week:Daily, NatVentAvail_Uhall_0_39,
  7b8f0ee8-4ade-426c-8fbe-d5206c386751, !- Sunday Schedule:Day Name
  f247f30a-8e24-4187-8a2d-b55cb85ae65c, !- Monday Schedule:Day Name
  fa407cf4-4832-4826-8720-46d485bcae77, !- Tuesday Schedule:Day Name
  cae73169-9381-4977-9fee-bedc7f97b86e, !- Wednesday Schedule:Day Name
  f2cb7afe-e64f-4c4c-8dc4-4ccd6db61ed8, !- Thursday Schedule:Day Name
  6bdc70a4-f05f-40f0-9e5a-0edc42fc2623, !- Friday Schedule:Day Name
  8d703f3d-682d-446b-be05-2317396a9aec, !- Saturday Schedule:Day Name
  7b8f0ee8-4ade-426c-8fbe-d5206c386751, !- Holiday Schedule:Day Name
  7b8f0ee8-4ade-426c-8fbe-d5206c386751, !- SummerDesignDay Schedule:Day Name
  7b8f0ee8-4ade-426c-8fbe-d5206c386751, !- WinterDesignDay Schedule:Day Name
  7b8f0ee8-4ade-426c-8fbe-d5206c386751, !- CustomDay1 Schedule:Day Name
  7b8f0ee8-4ade-426c-8fbe-d5206c386751; !- CustomDay2 Schedule:Day Name

Schedule:Week:Daily, NatVentAvail_Uhall_0_40,
  81c89fb5-c389-4096-b43a-58c98456619e, !- Sunday Schedule:Day Name
  c09d0b16-12bf-449a-9067-64481914c33f, !- Monday Schedule:Day Name
  71f2496a-1fc6-4c23-aaeb-16698b399a29, !- Tuesday Schedule:Day Name
  24731d7e-e89c-47d8-9c45-f676caf1be62, !- Wednesday Schedule:Day Name
  3f0f5dec-51e2-4a6a-a587-035f74f66103, !- Thursday Schedule:Day Name
  a37a7125-2fc2-4744-b659-a7067276d999, !- Friday Schedule:Day Name
  46174adf-a1de-4017-8d04-69a7af78ad67, !- Saturday Schedule:Day Name
  81c89fb5-c389-4096-b43a-58c98456619e, !- Holiday Schedule:Day Name
  81c89fb5-c389-4096-b43a-58c98456619e, !- SummerDesignDay Schedule:Day Name
  81c89fb5-c389-4096-b43a-58c98456619e, !- WinterDesignDay Schedule:Day Name
  81c89fb5-c389-4096-b43a-58c98456619e, !- CustomDay1 Schedule:Day Name
  81c89fb5-c389-4096-b43a-58c98456619e; !- CustomDay2 Schedule:Day Name

Schedule:Week:Daily, NatVentAvail_Uhall_0_41,
  f8b8e7c2-940a-4741-9228-861c6a699e86, !- Sunday Schedule:Day Name
  ead25a77-6f35-42e9-b504-67c48060d036, !- Monday Schedule:Day Name
  ea251e44-7b94-46f5-8cd0-095031f60540, !- Tuesday Schedule:Day Name
  0bc55a47-c553-459f-8520-3a73dca5fcc9, !- Wednesday Schedule:Day Name
  3a97f197-0d03-4f04-837c-0c25be32bdc1, !- Thursday Schedule:Day Name
  4d912ce7-ee7d-44ca-aa83-37e2997c6b6a, !- Friday Schedule:Day Name
  f50f2ac2-404e-4f76-be53-a4ba3e5039c8, !- Saturday Schedule:Day Name
  f8b8e7c2-940a-4741-9228-861c6a699e86, !- Holiday Schedule:Day Name
  f8b8e7c2-940a-4741-9228-861c6a699e86, !- SummerDesignDay Schedule:Day Name
  f8b8e7c2-940a-4741-9228-861c6a699e86, !- WinterDesignDay Schedule:Day Name
  f8b8e7c2-940a-4741-9228-861c6a699e86, !- CustomDay1 Schedule:Day Name
  f8b8e7c2-940a-4741-9228-861c6a699e86; !- CustomDay2 Schedule:Day Name

Schedule:Week:Daily, NatVentAvail_Uhall_0_42,
  643d1290-fc6c-4738-a795-339bccd81e6b, !- Sunday Schedule:Day Name
  7e1d4184-c45d-475a-95bf-eec5a14f8afe, !- Monday Schedule:Day Name
  a1d0e1b4-9bd5-4e52-85d6-e0e3e7c2d9eb, !- Tuesday Schedule:Day Name
  0dfbfaab-d101-4d30-80ba-a7b257c95024, !- Wednesday Schedule:Day Name
  7a37472b-882a-4521-8544-b9820cea469c, !- Thursday Schedule:Day Name
  b8e4c8a7-3b38-4b10-9bfc-0df7f088e525, !- Friday Schedule:Day Name
  76231fb9-d8a5-4b07-b1c5-e61b15ab97da, !- Saturday Schedule:Day Name
  643d1290-fc6c-4738-a795-339bccd81e6b, !- Holiday Schedule:Day Name
  643d1290-fc6c-4738-a795-339bccd81e6b, !- SummerDesignDay Schedule:Day Name
  643d1290-fc6c-4738-a795-339bccd81e6b, !- WinterDesignDay Schedule:Day Name
  643d1290-fc6c-4738-a795-339bccd81e6b, !- CustomDay1 Schedule:Day Name
  643d1290-fc6c-4738-a795-339bccd81e6b; !- CustomDay2 Schedule:Day Name

Schedule:Week:Daily, NatVentAvail_Uhall_0_43,
  5788cad6-316b-4893-b240-f73e67e3c4fa, !- Sunday Schedule:Day Name
  86f06402-88b3-4b63-9d25-9e76e8101479, !- Monday Schedule:Day Name
  9911065b-2b91-47c8-9dc7-b6e3e7039a38, !- Tuesday Schedule:Day Name
  db863845-76dd-4278-85e7-534e2b42b735, !- Wednesday Schedule:Day Name
  990788d9-3630-4f5c-80df-4fc7187ed9f9, !- Thursday Schedule:Day Name
  4362fb1d-b154-47fa-82a0-8699a8e1d197, !- Friday Schedule:Day Name
  812cf195-ed0a-48a8-a507-ca208756aee2, !- Saturday Schedule:Day Name
  5788cad6-316b-4893-b240-f73e67e3c4fa, !- Holiday Schedule:Day Name
  5788cad6-316b-4893-b240-f73e67e3c4fa, !- SummerDesignDay Schedule:Day Name
  5788cad6-316b-4893-b240-f73e67e3c4fa, !- WinterDesignDay Schedule:Day Name
  5788cad6-316b-4893-b240-f73e67e3c4fa, !- CustomDay1 Schedule:Day Name
  5788cad6-316b-4893-b240-f73e67e3c4fa; !- CustomDay2 Schedule:Day Name

Schedule:Week:Daily, NatVentAvail_Uhall_0_44,
  3eabedc1-1715-409c-9a7c-abcde10b50f3, !- Sunday Schedule:Day Name
  c100b73b-2f90-4a8a-8709-596de4cf8f78, !- Monday Schedule:Day Name
  f4e171bb-5ac4-4e8f-87a7-608f1a36c9e7, !- Tuesday Schedule:Day Name
  74f0ccf9-9611-438d-ad20-eb344138fd0b, !- Wednesday Schedule:Day Name
  2d4c538f-afc6-41fb-b630-62724eff35c8, !- Thursday Schedule:Day Name
  0a52c0f2-28d0-4f9b-a360-3fb49f230407, !- Friday Schedule:Day Name
  d914082f-4541-4f9f-b515-560769f1c74d, !- Saturday Schedule:Day Name
  3eabedc1-1715-409c-9a7c-abcde10b50f3, !- Holiday Schedule:Day Name
  3eabedc1-1715-409c-9a7c-abcde10b50f3, !- SummerDesignDay Schedule:Day Name
  3eabedc1-1715-409c-9a7c-abcde10b50f3, !- WinterDesignDay Schedule:Day Name
  3eabedc1-1715-409c-9a7c-abcde10b50f3, !- CustomDay1 Schedule:Day Name
  3eabedc1-1715-409c-9a7c-abcde10b50f3; !- CustomDay2 Schedule:Day Name

Schedule:Week:Daily, NatVentAvail_Uhall_0_45,
  41480300-d2e8-45cd-ac1f-e24d05f81de1, !- Sunday Schedule:Day Name
  05a9b5f6-810d-47a2-a3ed-fe107d475e08, !- Monday Schedule:Day Name
  5ed05bee-3597-4311-a2dc-37570760bcdf, !- Tuesday Schedule:Day Name
  c2f1bc58-b1bf-4e7f-80ad-9e7a0b356a0e, !- Wednesday Schedule:Day Name
  fa407cf4-4832-4826-8720-46d485bcae77, !- Thursday Schedule:Day Name
  a292a8d8-a87a-47e8-9861-f384808c49f9, !- Friday Schedule:Day Name
  41480300-d2e8-45cd-ac1f-e24d05f81de1, !- Saturday Schedule:Day Name
  41480300-d2e8-45cd-ac1f-e24d05f81de1, !- Holiday Schedule:Day Name
  41480300-d2e8-45cd-ac1f-e24d05f81de1, !- SummerDesignDay Schedule:Day Name
  41480300-d2e8-45cd-ac1f-e24d05f81de1, !- WinterDesignDay Schedule:Day Name
  41480300-d2e8-45cd-ac1f-e24d05f81de1, !- CustomDay1 Schedule:Day Name
  41480300-d2e8-45cd-ac1f-e24d05f81de1; !- CustomDay2 Schedule:Day Name

Schedule:Week:Daily, NatVentAvail_Uhall_0_46,
  4d12dda1-ec74-40b6-84e2-90b7e16cccc9, !- Sunday Schedule:Day Name
  7e1d4184-c45d-475a-95bf-eec5a14f8afe, !- Monday Schedule:Day Name
  4cfc04fe-c15a-495c-88c6-e71002f19f15, !- Tuesday Schedule:Day Name
  652c2e8d-a48d-48ac-948a-82b5704a174c, !- Wednesday Schedule:Day Name
  4fa9f995-de47-4123-a1da-32c2a08db216, !- Thursday Schedule:Day Name
  17cf9ca7-e841-4da8-a251-574465571315, !- Friday Schedule:Day Name
  cafdb4ca-72ea-4d36-aa43-e15ad10d879f, !- Saturday Schedule:Day Name
  4d12dda1-ec74-40b6-84e2-90b7e16cccc9, !- Holiday Schedule:Day Name
  4d12dda1-ec74-40b6-84e2-90b7e16cccc9, !- SummerDesignDay Schedule:Day Name
  4d12dda1-ec74-40b6-84e2-90b7e16cccc9, !- WinterDesignDay Schedule:Day Name
  4d12dda1-ec74-40b6-84e2-90b7e16cccc9, !- CustomDay1 Schedule:Day Name
  4d12dda1-ec74-40b6-84e2-90b7e16cccc9; !- CustomDay2 Schedule:Day Name

Schedule:Week:Daily, NatVentAvail_Uhall_0_47,
  5115d299-2a37-4d3d-b8ac-7ab23069cdea, !- Sunday Schedule:Day Name
  4225e8e1-3342-4360-aa35-ab3032df7977, !- Monday Schedule:Day Name
  31482dbb-fc52-4daa-b2d6-c19400f8b7dd, !- Tuesday Schedule:Day Name
  10692596-0a86-4582-a6a6-5bfbf260f151, !- Wednesday Schedule:Day Name
  04d9453c-5623-4ae9-b2ae-58740eb2e8ce, !- Thursday Schedule:Day Name
  1d2fc50b-0a49-4854-9b77-556b4d948948, !- Friday Schedule:Day Name
  98014b99-b524-483d-9357-3c9cac3ab07e, !- Saturday Schedule:Day Name
  5115d299-2a37-4d3d-b8ac-7ab23069cdea, !- Holiday Schedule:Day Name
  5115d299-2a37-4d3d-b8ac-7ab23069cdea, !- SummerDesignDay Schedule:Day Name
  5115d299-2a37-4d3d-b8ac-7ab23069cdea, !- WinterDesignDay Schedule:Day Name
  5115d299-2a37-4d3d-b8ac-7ab23069cdea, !- CustomDay1 Schedule:Day Name
  5115d299-2a37-4d3d-b8ac-7ab23069cdea; !- CustomDay2 Schedule:Day Name

Schedule:Week:Daily, NatVentAvail_Uhall_0_48,
  f9c9c6e6-474d-4073-bf22-9087017849ae, !- Sunday Schedule:Day Name
  61350f18-d33d-495c-8e7f-2d22e85fa7d2, !- Monday Schedule:Day Name
  01c03bce-018f-499f-923d-5bd3592d06c6, !- Tuesday Schedule:Day Name
  47683fe2-e1dc-43ba-9a07-2a4ed2b0bbca, !- Wednesday Schedule:Day Name
  b50fbb0b-ccd2-423a-b054-cb9bc2250c1a, !- Thursday Schedule:Day Name
  89ca65e2-645e-4b1f-9480-58017509b166, !- Friday Schedule:Day Name
  89050f26-12b3-4456-998e-03f85882c61e, !- Saturday Schedule:Day Name
  f9c9c6e6-474d-4073-bf22-9087017849ae, !- Holiday Schedule:Day Name
  f9c9c6e6-474d-4073-bf22-9087017849ae, !- SummerDesignDay Schedule:Day Name
  f9c9c6e6-474d-4073-bf22-9087017849ae, !- WinterDesignDay Schedule:Day Name
  f9c9c6e6-474d-4073-bf22-9087017849ae, !- CustomDay1 Schedule:Day Name
  f9c9c6e6-474d-4073-bf22-9087017849ae; !- CustomDay2 Schedule:Day Name

Schedule:Week:Daily, NatVentAvail_Uhall_0_49,
  60c365fb-d4b6-42be-b02b-5820b220b864, !- Sunday Schedule:Day Name
  e61fb98e-7ecf-4d1e-bf36-8f053ff9741b, !- Monday Schedule:Day Name
  5064d9e3-acee-452f-a840-dfea63cae2cc, !- Tuesday Schedule:Day Name
  b97cb5a5-d5a9-4a0d-8908-14f7e0c609ae, !- Wednesday Schedule:Day Name
  41a14bc3-846a-40e0-ba57-7c66e5b3d7d2, !- Thursday Schedule:Day Name
  fb5b6c37-b237-4585-9eb5-cb5afb383a00, !- Friday Schedule:Day Name
  14307ef4-5877-4c5d-bdde-77e6f39d5d6b, !- Saturday Schedule:Day Name
  60c365fb-d4b6-42be-b02b-5820b220b864, !- Holiday Schedule:Day Name
  60c365fb-d4b6-42be-b02b-5820b220b864, !- SummerDesignDay Schedule:Day Name
  60c365fb-d4b6-42be-b02b-5820b220b864, !- WinterDesignDay Schedule:Day Name
  60c365fb-d4b6-42be-b02b-5820b220b864, !- CustomDay1 Schedule:Day Name
  60c365fb-d4b6-42be-b02b-5820b220b864; !- CustomDay2 Schedule:Day Name

Schedule:Week:Daily, NatVentAvail_Uhall_0_50,
  06d632c5-547c-47d1-aacc-91daa1ccd574, !- Sunday Schedule:Day Name
  71f2496a-1fc6-4c23-aaeb-16698b399a29, !- Monday Schedule:Day Name
  43ce78f5-0925-4cd2-8616-c9d19e1a19c7, !- Tuesday Schedule:Day Name
  20664317-2f59-48ea-8a4d-a57176698c39, !- Wednesday Schedule:Day Name
  fedb8d73-1b08-44aa-92cd-ec5e18078bad, !- Thursday Schedule:Day Name
  3d5d7321-644f-46c5-9f62-165a607bd149, !- Friday Schedule:Day Name
  bdfd5a6f-2b87-49b7-b9ce-44798d6c6f84, !- Saturday Schedule:Day Name
  06d632c5-547c-47d1-aacc-91daa1ccd574, !- Holiday Schedule:Day Name
  06d632c5-547c-47d1-aacc-91daa1ccd574, !- SummerDesignDay Schedule:Day Name
  06d632c5-547c-47d1-aacc-91daa1ccd574, !- WinterDesignDay Schedule:Day Name
  06d632c5-547c-47d1-aacc-91daa1ccd574, !- CustomDay1 Schedule:Day Name
  06d632c5-547c-47d1-aacc-91daa1ccd574; !- CustomDay2 Schedule:Day Name

Schedule:Week:Daily, NatVentAvail_Uhall_0_51,
  6ebcf35c-1306-47d4-9ffe-709202d06e21, !- Sunday Schedule:Day Name
  50196fd8-8e6f-4f6b-9330-155e470fcb70, !- Monday Schedule:Day Name
  c78f1e1e-8076-4246-9f53-a86594e02594, !- Tuesday Schedule:Day Name
  1a51ea95-b00b-4007-baf4-81df2edde44e, !- Wednesday Schedule:Day Name
  8d1a59fb-d8d0-49f8-a34f-28770e77c295, !- Thursday Schedule:Day Name
  349e1abd-b25f-4db6-b761-d670b08dca59, !- Friday Schedule:Day Name
  95ed3a54-aa3f-43d6-8d76-e7e7197769d4, !- Saturday Schedule:Day Name
  6ebcf35c-1306-47d4-9ffe-709202d06e21, !- Holiday Schedule:Day Name
  6ebcf35c-1306-47d4-9ffe-709202d06e21, !- SummerDesignDay Schedule:Day Name
  6ebcf35c-1306-47d4-9ffe-709202d06e21, !- WinterDesignDay Schedule:Day Name
  6ebcf35c-1306-47d4-9ffe-709202d06e21, !- CustomDay1 Schedule:Day Name
  6ebcf35c-1306-47d4-9ffe-709202d06e21; !- CustomDay2 Schedule:Day Name

Schedule:Week:Daily, NatVentAvail_Uhall_0_52,
  31dfce8c-c413-471a-8925-809b4268a0f0, !- Sunday Schedule:Day Name
  31dfce8c-c413-471a-8925-809b4268a0f0, !- Monday Schedule:Day Name
  31dfce8c-c413-471a-8925-809b4268a0f0, !- Tuesday Schedule:Day Name
  31dfce8c-c413-471a-8925-809b4268a0f0, !- Wednesday Schedule:Day Name
  31dfce8c-c413-471a-8925-809b4268a0f0, !- Thursday Schedule:Day Name
  31dfce8c-c413-471a-8925-809b4268a0f0, !- Friday Schedule:Day Name
  31dfce8c-c413-471a-8925-809b4268a0f0, !- Saturday Schedule:Day Name
  31dfce8c-c413-471a-8925-809b4268a0f0, !- Holiday Schedule:Day Name
  31dfce8c-c413-471a-8925-809b4268a0f0, !- SummerDesignDay Schedule:Day Name
  31dfce8c-c413-471a-8925-809b4268a0f0, !- WinterDesignDay Schedule:Day Name
  31dfce8c-c413-471a-8925-809b4268a0f0, !- CustomDay1 Schedule:Day Name
  31dfce8c-c413-471a-8925-809b4268a0f0; !- CustomDay2 Schedule:Day Name




!------------------------------------------------ ZONE ----------------------------------------------------

Zone,
  Uhall_0,            !- Name
  0,                       !- Rotation [deg]
  0,                       !- X origin [m]
  0,                       !- Y origin [m]
  0,                       !- Z origin [m]
  1,                       !- Type
  1,                       !- Multiplier
  ,                        !- CeilingHeight [m]
  34643.00000000003,                   !- Volume [m3]
  4948.999999999999,                   !- Area [m2]
  TARP,                    !- Zone Inside Convection Algorithm
  DOE-2;                   !- Zone Outside Convection Algorithm

! ------------------------ PEOPLE
People,
    People Uhall_0,   !- Name
    Uhall_0,  !- Zone or ZoneList Name
    MidriseApartment-3B_APT_OCC_SCH_Year,    !- OccupancySchedule
    People/Area,    !- Number of People Calculation Method
    ,   !- Number of People
    0.0714,    !- PeopleDensity [person/m2]
    ,   !- Floor Area per Person [m2/person]
    0.3,    !- Fraction Radiant
    AUTOCALCULATE,  !- Sensible Heat Fraction
    Uhall_0PeopleActivity,    !- Activity Level Schedule Name
    3.82E-08,   !- Carbon Dioxide Generation Rate [m3/s-W]
    No, !- Enable ASHRAE 55 Comfort Warnings
    ZoneAveraged,   !- Mean Radiant Temperature Calculation Type
    ,   !- Surface Name/Angle Factor List Name
    Uhall_0WorkEfficiency,    !- Work Efficiency Schedule Name
    DynamicClothingModelASHRAE55,   !- Clothing Insulation Calculation Method
    ,   !- Clothing Insulation Calculation Method Schedule Name
    ,   !- Clothing Insulation Schedule Name
    AirSpeed 0,!- Air Velocity Schedule Name
    AdaptiveASH55,               !- Thermal Comfort Model 1 Type
    Pierce,               !- Thermal Comfort Model 2 Type
    Fanger;               !- Thermal Comfort Model 3 Type




    Schedule:Constant,
    Uhall_0PeopleActivity,
    Any Number,
    125.27999999999999; !- MetabolicRate [met]
    Schedule:Constant,
    Uhall_0WorkEfficiency,
    Any Number, 
    0;


! ------------------------ EQUIPMENT
ElectricEquipment,
  Uhall_0 Equipment,!- Name
  Uhall_0,            !- Zone or ZoneList Name
  equipResidential, !- EquipmentAvailibilitySchedule
  Watts/Area,          !- Design Level Calculation Method
  ,                !- Design Level [W]
  7, !- EquipmentPowerDensity [W/m2]
  ,                        !- Watts per Person [W/person]
  0,                       !- Fraction Latent
  .2,                      !- Fraction Radiant
  0,                       !- Fraction Lost
  ;                        !- End-Use Subcategory

! ------------------------ LIGHTS
Lights,
  Uhall_0 General lighting,   !- Name
  Uhall_0,                    !- Zone or ZoneList Name
  lightsResidential, !- LightsAvailibilitySchedule
  Watts/Area,              !- Design Level Calculation Method
  ,                        !- Lighting Level [W]
  10,   !- LightingPowerDensity [W/m2]
  ,                        !- Watts per Person [W/person]
  0,                       !- Return Air Fraction
  .42,                     !- Fraction Radiant
  .18,                     !- Fraction Visible
  1,                       !- Fraction Replaceable
  ;                        !- End-Use Subcategory


! ------------------------ DAYLIGHT CONTROLS
Daylighting:Controls,
Uhall_0_DaylCtrl, !-Name
Uhall_0,            !-Zone Name
SplitFlux,               !-Daylighting Method
lightsResidential, !- @Uhall_0-LightsAvailibilitySchedule@ 
Continuous,                       !-Lighting control type { 1 = continuous,2 = stepped,3 = continuous / off}
0.1,                     !-Minimum Input Power Fraction for Continuous Dimming Control
    0.1, !-Minimum Light Output Fraction for Continuous Dimming Control
    3, !-Number of Stepped Control Steps
    1, !-Probability Lighting will be Reset When Needed in Manual Stepped Control
    ,                        !- Glare Calculation Daylighting Reference Point Name
    ,                        !- Glare Calculation Azimuth Angle of View Direction Clockwise from Zone y-Axis [deg]
    22,                      !- Maximum Allowable Discomfort Glare Index
    ,                        !- DElight Gridding Resolution {m2}
    Uhall_0_DaylCtrlRefPt1,                        !- Daylighting Reference Point 1 Name
    1,                       !- Fraction of Zone Controlled by Reference Point 1
    500; !- @Uhall_0-IlluminanceSetpoint@ [lux at Reference Point 1]
    
Daylighting:ReferencePoint,
     Uhall_0_DaylCtrlRefPt1,                        !-Name
     Uhall_0,                        !-Zone Name
    24.500000000000004,                        !-X - Coordinate of Reference Point [m]
    50.50000000000001,                        !-Y - Coordinate of Reference Point [m]
    0.85; !-Z - Coordinate of Reference Point [m]
            ! ------------------------ NATVENT


ZoneVentilation:WindandStackOpenArea,
Uhall_0NatVent_Buoy,          !- Name
Uhall_0,                  !- Zone Name
726.8800000000001,                       !- Opening Area {m2}
NatVentAvail_Uhall_0,                !- Opening Area Fraction Schedule Name
0,                     !- Opening Effectiveness {dimensionless}
0,                     !- Effective Angle {deg}
0.8200596431269238,                       !- Height Difference {m}
0.6,                       !- Discharge Coefficient for Opening
22,                    !- Minimum Indoor Temperature {C}
,                        !- Minimum Indoor Temperature Schedule Name
100,                     !- Maximum Indoor Temperature {C}
,                        !- Maximum Indoor Temperature Schedule Name
1,                    !- Delta Temperature {deltaC}
,                        !- Delta Temperature Schedule Name
0,                    !- Minimum Outdoor Temperature {C}
,                        !- Minimum Outdoor Temperature Schedule Name
30,                     !- Maximum Outdoor Temperature {C}
,                        !- Maximum Outdoor Temperature Schedule Name
40;                      !- Maximum Wind Speed {m/s}

! ------------------------ INFILTRATION
ZoneInfiltration:DesignFlowRate,
  Uhall_0Infiltration,  !- Name
  Uhall_0,            !- Zone or ZoneList Name
  On,                      !- Schedule Name
  Flow/ExteriorArea,               !- Design Flow Rate Calculation Method
  ,                        !- Design Flow Rate [m3/s]
  ,                        !- Flow per Zone Floor Area [m3/s-m2]
  0.0005689597106659634,                        !- Flow per Exterior Surface Area [m3/s-m2]
  , !- @Uhall_0-InfiltrationAch@ [Air Changes per Hour]
  1, !- @Uhall_0-InfiltrationConstantCoefficient@ 
  0, !- @Uhall_0-InfiltrationTemperatureCoefficient@ 
  0, !- @Uhall_0-InfiltrationWindVelocityCoefficient@  
  0; !- @Uhall_0-InfiltrationWindVelocitySquaredCoefficient@ 

! ------------------------ GEOMETRY ------------------------

! FACE NORMAL  0 -1 0
BuildingSurface:Detailed,!-Type
Uhall_0:f0, !-Name
Wall,                    !-Surface Type
90.1-2019 Nonresidential CZ 0 Exterior Wall (Mass),                       !-Construction Name
Uhall_0,            !-Zone Name
,            !-Space Name
Outdoors,                !-Outside Boundary Condition
,                        !-Outside Boundary Condition Object
SunExposed,              !-Sun Exposure
WindExposed,             !-Wind Exposure
Autocalculate,                      !-View Factor to Ground
4,                       !-Number of Vertices

0.0000, 0.0000, 0.0000,  !- X,Y,Z ==> Vertex
49.0000, 0.0000, 0.0000,  !- X,Y,Z ==> Vertex
49.0000, 0.0000, 7.0000,  !- X,Y,Z ==> Vertex
0.0000, 0.0000, 7.0000;  !- X,Y,Z ==> Vertex


FenestrationSurface:Detailed,
Uhall_0:f0:w0, !-Name
Window,                  !- Surface Type
DoublePaneClr,   !- @Uhall_0:f0:w0-Construction@
Uhall_0:f0, !- Building Surface Name
,                        !- Outside Boundary Condition Object
Autocalculate,                      !- View Factor to Ground
Uhall_0:f0:w0Frame,                       !- Frame and Divider Name
1,                       !- Multiplier
4,                       !-Number of Vertices

1.2839, 0.0000, 1.2839,  !- X,Y,Z ==> Vertex
47.7161, 0.0000, 1.2839,  !- X,Y,Z ==> Vertex
47.7161, 0.0000, 5.7161,  !- X,Y,Z ==> Vertex
1.2839, 0.0000, 5.7161;  !- X,Y,Z ==> Vertex

WindowProperty:FrameAndDivider,
    Uhall_0:f0:w0Frame,    !- Name
    0.05,   !- Width [m]
    0.01,   !- FrameOutsideProjection [m]
    0.01,   !- FrameInsideProjection [m]
    2.1,   !- FrameConductance [W/m2-K]
    1.5,   !- Ratio of Frame-Edge Glass Conductance to Center-Of-Glass Conductance
    0.8,                     !- Frame Solar Absorptance
    0.8,                     !- Frame Visible Absorptance
    0.9,                     !- Frame Thermal Hemispherical Emissivity
    DividedLite,             !- Divider Type
    0,   !- DividerWidth [m]
    0,                       !- Number of Horizontal Dividers
    0,                       !- Number of Vertical Dividers
    0.03,                    !- Divider Outside Projection [m]
    0.03,                    !- Divider Inside Projection [m]
    2.1,                     !- Divider Conductance [W/m2-K]
    1.5,                     !- Ratio of Divider-Edge Glass Conductance to Center-Of-Glass Conductance
    0.8,                     !- Divider Solar Absorptance
    0.8,                     !- Divider Visible Absorptance
    0.9,                     !- Divider Thermal Hemispherical Emissivity
    0.7,                     !- Outside Reveal Solar Absorptance
    0,   !- InsideSillDepth [m]
    0.6,                     !- Inside Sill Solar Absorptance
    0,   !- InsideRevealDepth [m]
    0.5;                     !- Inside Reveal Solar Absorptance


! FACE NORMAL  1 0 0
BuildingSurface:Detailed,!-Type
Uhall_0:f1, !-Name
Wall,                    !-Surface Type
90.1-2019 Nonresidential CZ 0 Exterior Wall (Mass),                       !-Construction Name
Uhall_0,            !-Zone Name
,            !-Space Name
Outdoors,                !-Outside Boundary Condition
,                        !-Outside Boundary Condition Object
SunExposed,              !-Sun Exposure
WindExposed,             !-Wind Exposure
Autocalculate,                      !-View Factor to Ground
4,                       !-Number of Vertices

49.0000, 0.0000, 0.0000,  !- X,Y,Z ==> Vertex
49.0000, 101.0000, 0.0000,  !- X,Y,Z ==> Vertex
49.0000, 101.0000, 7.0000,  !- X,Y,Z ==> Vertex
49.0000, 0.0000, 7.0000;  !- X,Y,Z ==> Vertex


FenestrationSurface:Detailed,
Uhall_0:f1:w0, !-Name
Window,                  !- Surface Type
DoublePaneClr,   !- @Uhall_0:f1:w0-Construction@
Uhall_0:f1, !- Building Surface Name
,                        !- Outside Boundary Condition Object
Autocalculate,                      !- View Factor to Ground
Uhall_0:f1:w0Frame,                       !- Frame and Divider Name
1,                       !- Multiplier
4,                       !-Number of Vertices

49.0000, 2.0410, 2.0410,  !- X,Y,Z ==> Vertex
49.0000, 98.9590, 2.0410,  !- X,Y,Z ==> Vertex
49.0000, 98.9590, 4.9590,  !- X,Y,Z ==> Vertex
49.0000, 2.0410, 4.9590;  !- X,Y,Z ==> Vertex

WindowProperty:FrameAndDivider,
    Uhall_0:f1:w0Frame,    !- Name
    0.05,   !- Width [m]
    0.01,   !- FrameOutsideProjection [m]
    0.01,   !- FrameInsideProjection [m]
    2.1,   !- FrameConductance [W/m2-K]
    1.5,   !- Ratio of Frame-Edge Glass Conductance to Center-Of-Glass Conductance
    0.8,                     !- Frame Solar Absorptance
    0.8,                     !- Frame Visible Absorptance
    0.9,                     !- Frame Thermal Hemispherical Emissivity
    DividedLite,             !- Divider Type
    0,   !- DividerWidth [m]
    0,                       !- Number of Horizontal Dividers
    0,                       !- Number of Vertical Dividers
    0.03,                    !- Divider Outside Projection [m]
    0.03,                    !- Divider Inside Projection [m]
    2.1,                     !- Divider Conductance [W/m2-K]
    1.5,                     !- Ratio of Divider-Edge Glass Conductance to Center-Of-Glass Conductance
    0.8,                     !- Divider Solar Absorptance
    0.8,                     !- Divider Visible Absorptance
    0.9,                     !- Divider Thermal Hemispherical Emissivity
    0.7,                     !- Outside Reveal Solar Absorptance
    0,   !- InsideSillDepth [m]
    0.6,                     !- Inside Sill Solar Absorptance
    0,   !- InsideRevealDepth [m]
    0.5;                     !- Inside Reveal Solar Absorptance


! FACE NORMAL  0 1 -0
BuildingSurface:Detailed,!-Type
Uhall_0:f2, !-Name
Wall,                    !-Surface Type
90.1-2019 Nonresidential CZ 0 Exterior Wall (Mass),                       !-Construction Name
Uhall_0,            !-Zone Name
,            !-Space Name
Outdoors,                !-Outside Boundary Condition
,                        !-Outside Boundary Condition Object
SunExposed,              !-Sun Exposure
WindExposed,             !-Wind Exposure
Autocalculate,                      !-View Factor to Ground
4,                       !-Number of Vertices

49.0000, 101.0000, 0.0000,  !- X,Y,Z ==> Vertex
0.0000, 101.0000, 0.0000,  !- X,Y,Z ==> Vertex
0.0000, 101.0000, 7.0000,  !- X,Y,Z ==> Vertex
49.0000, 101.0000, 7.0000;  !- X,Y,Z ==> Vertex


FenestrationSurface:Detailed,
Uhall_0:f2:w0, !-Name
Window,                  !- Surface Type
DoublePaneClr,   !- @Uhall_0:f2:w0-Construction@
Uhall_0:f2, !- Building Surface Name
,                        !- Outside Boundary Condition Object
Autocalculate,                      !- View Factor to Ground
Uhall_0:f2:w0Frame,                       !- Frame and Divider Name
1,                       !- Multiplier
4,                       !-Number of Vertices

47.0229, 101.0000, 1.9771,  !- X,Y,Z ==> Vertex
1.9771, 101.0000, 1.9771,  !- X,Y,Z ==> Vertex
1.9771, 101.0000, 5.0229,  !- X,Y,Z ==> Vertex
47.0229, 101.0000, 5.0229;  !- X,Y,Z ==> Vertex

WindowProperty:FrameAndDivider,
    Uhall_0:f2:w0Frame,    !- Name
    0.05,   !- Width [m]
    0.01,   !- FrameOutsideProjection [m]
    0.01,   !- FrameInsideProjection [m]
    2.1,   !- FrameConductance [W/m2-K]
    1.5,   !- Ratio of Frame-Edge Glass Conductance to Center-Of-Glass Conductance
    0.8,                     !- Frame Solar Absorptance
    0.8,                     !- Frame Visible Absorptance
    0.9,                     !- Frame Thermal Hemispherical Emissivity
    DividedLite,             !- Divider Type
    0,   !- DividerWidth [m]
    0,                       !- Number of Horizontal Dividers
    0,                       !- Number of Vertical Dividers
    0.03,                    !- Divider Outside Projection [m]
    0.03,                    !- Divider Inside Projection [m]
    2.1,                     !- Divider Conductance [W/m2-K]
    1.5,                     !- Ratio of Divider-Edge Glass Conductance to Center-Of-Glass Conductance
    0.8,                     !- Divider Solar Absorptance
    0.8,                     !- Divider Visible Absorptance
    0.9,                     !- Divider Thermal Hemispherical Emissivity
    0.7,                     !- Outside Reveal Solar Absorptance
    0,   !- InsideSillDepth [m]
    0.6,                     !- Inside Sill Solar Absorptance
    0,   !- InsideRevealDepth [m]
    0.5;                     !- Inside Reveal Solar Absorptance


! FACE NORMAL  -1 0 0
BuildingSurface:Detailed,!-Type
Uhall_0:f3, !-Name
Wall,                    !-Surface Type
90.1-2019 Nonresidential CZ 0 Exterior Wall (Mass),                       !-Construction Name
Uhall_0,            !-Zone Name
,            !-Space Name
Outdoors,                !-Outside Boundary Condition
,                        !-Outside Boundary Condition Object
SunExposed,              !-Sun Exposure
WindExposed,             !-Wind Exposure
Autocalculate,                      !-View Factor to Ground
4,                       !-Number of Vertices

0.0000, 101.0000, 0.0000,  !- X,Y,Z ==> Vertex
0.0000, 0.0000, 0.0000,  !- X,Y,Z ==> Vertex
0.0000, 0.0000, 7.0000,  !- X,Y,Z ==> Vertex
0.0000, 101.0000, 7.0000;  !- X,Y,Z ==> Vertex


FenestrationSurface:Detailed,
Uhall_0:f3:w0, !-Name
Window,                  !- Surface Type
DoublePaneClr,   !- @Uhall_0:f3:w0-Construction@
Uhall_0:f3, !- Building Surface Name
,                        !- Outside Boundary Condition Object
Autocalculate,                      !- View Factor to Ground
Uhall_0:f3:w0Frame,                       !- Frame and Divider Name
1,                       !- Multiplier
4,                       !-Number of Vertices

0.0000, 98.9590, 2.0410,  !- X,Y,Z ==> Vertex
0.0000, 2.0410, 2.0410,  !- X,Y,Z ==> Vertex
0.0000, 2.0410, 4.9590,  !- X,Y,Z ==> Vertex
0.0000, 98.9590, 4.9590;  !- X,Y,Z ==> Vertex

WindowProperty:FrameAndDivider,
    Uhall_0:f3:w0Frame,    !- Name
    0.05,   !- Width [m]
    0.01,   !- FrameOutsideProjection [m]
    0.01,   !- FrameInsideProjection [m]
    2.1,   !- FrameConductance [W/m2-K]
    1.5,   !- Ratio of Frame-Edge Glass Conductance to Center-Of-Glass Conductance
    0.8,                     !- Frame Solar Absorptance
    0.8,                     !- Frame Visible Absorptance
    0.9,                     !- Frame Thermal Hemispherical Emissivity
    DividedLite,             !- Divider Type
    0,   !- DividerWidth [m]
    0,                       !- Number of Horizontal Dividers
    0,                       !- Number of Vertical Dividers
    0.03,                    !- Divider Outside Projection [m]
    0.03,                    !- Divider Inside Projection [m]
    2.1,                     !- Divider Conductance [W/m2-K]
    1.5,                     !- Ratio of Divider-Edge Glass Conductance to Center-Of-Glass Conductance
    0.8,                     !- Divider Solar Absorptance
    0.8,                     !- Divider Visible Absorptance
    0.9,                     !- Divider Thermal Hemispherical Emissivity
    0.7,                     !- Outside Reveal Solar Absorptance
    0,   !- InsideSillDepth [m]
    0.6,                     !- Inside Sill Solar Absorptance
    0,   !- InsideRevealDepth [m]
    0.5;                     !- Inside Reveal Solar Absorptance


! FACE NORMAL  -0 -0 -1

Construction:FfactorGroundFloor,
Uhall_0:f4UnderGroundSlabCF,
0.73, !F-factor in W/m-K
4949, !Area in m2
300; !Exposed perimeter in m
BuildingSurface:Detailed,!-Type
Uhall_0:f4, !-Name
Floor,                    !-Surface Type
Uhall_0:f4UnderGroundSlabCF,                       !-Construction Name
Uhall_0,            !-Zone Name
,            !-Space Name
GroundFCfactorMethod,                !-Outside Boundary Condition
,                        !-Outside Boundary Condition Object
NoSun,              !-Sun Exposure
NoWind,             !-Wind Exposure
Autocalculate,                      !-View Factor to Ground
4,                       !-Number of Vertices

0.0000, 0.0000, 0.0000,  !- X,Y,Z ==> Vertex
0.0000, 101.0000, 0.0000,  !- X,Y,Z ==> Vertex
49.0000, 101.0000, 0.0000,  !- X,Y,Z ==> Vertex
49.0000, 0.0000, 0.0000;  !- X,Y,Z ==> Vertex


! FACE NORMAL  0 0 1
BuildingSurface:Detailed,!-Type
Uhall_0:f5, !-Name
Roof,                    !-Surface Type
90.1-2019 Nonresidential CZ 0 Exterior Roof (Mass),                       !-Construction Name
Uhall_0,            !-Zone Name
,            !-Space Name
Outdoors,                !-Outside Boundary Condition
,                        !-Outside Boundary Condition Object
SunExposed,              !-Sun Exposure
WindExposed,             !-Wind Exposure
0,                      !-View Factor to Ground
4,                       !-Number of Vertices

0.0000, 0.0000, 7.0000,  !- X,Y,Z ==> Vertex
49.0000, 0.0000, 7.0000,  !- X,Y,Z ==> Vertex
49.0000, 101.0000, 7.0000,  !- X,Y,Z ==> Vertex
0.0000, 101.0000, 7.0000;  !- X,Y,Z ==> Vertex



!------------------------Ideal Loads System Uhall_0------------------------

ZoneHVAC:EquipmentConnections,
  Uhall_0,            !- Zone Name
  Uhall_0 Equipment,  !- Zone Conditioning Equipment List Name
  Uhall_0 Inlets,     !- Zone Air Inlet Node or NodeList Name
  ,                         !- Zone Air Exhaust Node or NodeList Name
  Node Uhall_0 Zone,  !- Zone Air Node Name
  Node Uhall_0 Out;   !- Zone Return Air Node Name

ZoneHVAC:EquipmentList,
  Uhall_0 Equipment,       !- Name
  UniformLoad,                   !- Load Distribution Scheme
  ZoneHVAC:IdealLoadsAirSystem,  !- Zone Equipment 1 Object Type
  Uhall_0 Ideal Loads Air, !- Zone Equipment 1 Name
  1,                             !- Zone Equipment 1 Cooling Sequence
  1;                             !- Zone Equipment 1 Heating or No-Load Sequence

NodeList,
  Uhall_0 Inlets,     !- Name
  Node Uhall_0 In;    !- Node 1 Name

ZoneHVAC:IdealLoadsAirSystem,
  Uhall_0 Ideal Loads Air,  !- Name
  ,                        !- Availability Schedule Name
  Node Uhall_0 In,   !- Zone Supply Air Node Name
  ,                        !- Zone Exhaust Air Node Name
  ,                        !- System Inlet Air Node Name
  35,                      !- Maximum Heating Supply Air Temperature {C}
  12,                      !- Minimum Cooling Supply Air Temperature {C}
  0.01,                    !- Maximum Heating Supply Air Humidity Ratio {kgWater/kgDryAir}
  0.008,                   !- Minimum Cooling Supply Air Humidity Ratio {kgWater/kgDryAir}
  LimitFlowRateAndCapacity,                 !- Heating Limit
  Autosize, !- MaximumHeatingAirFlowRate [m3/s]
  Autosize, !- MaximumSensibleHeatingCapacity [W]
  LimitFlowRateAndCapacity,                 !- Cooling Limit
  Autosize , !- MaximumCoolingAirFlowRate [m3/s]
  Autosize, !- MaximumTotalCoolingCapacity [W]
  HeatAvail_Uhall_0, !- HeatingAvailabilitySchedule
  CoolAvail_Uhall_0, !- CoolingAvailabilitySchedule
  Humidistat,                    !- Dehumidification Control Type
  ,                        !- Cooling Sensible Heat Ratio {dimensionless}
  Humidistat,                    !- Humidification Control Type
  Uhall_0MinFreshAir,                        !- Design Specification Outdoor Air Object Name
  Uhall_0OutdoorInlet,                        !- Outdoor Air Inlet Node Name
  OccupancySchedule,                        !- Demand Controlled Ventilation Type
  NoEconomizer,                        !- Outdoor Air Economizer Type
  None,                        !- Heat Recovery Type
  0.7, !-  SensibleHeatRecoveryEffectiveness
  0.65; !-  LatentHeatRecoveryEffectiveness




Sizing:Zone,
  Uhall_0,                   !- Zone or ZoneList Name
  SupplyAirTemperature,    !- Zone Cooling Design Supply Air Temperature Input Method
  12,                      !- Zone Cooling Design Supply Air Temperature {C}
  ,                        !- Zone Cooling Design Supply Air Temperature Difference {deltaC}
  SupplyAirTemperature,    !- Zone Heating Design Supply Air Temperature Input Method
  35,                 !- Zone Heating Design Supply Air Temperature {C}
  ,                        !- Zone Heating Design Supply Air Temperature Difference {deltaC}
  0.009,                   !- Zone Cooling Design Supply Air Humidity Ratio {kgWater/kgDryAir}
  0.004,                   !- Zone Heating Design Supply Air Humidity Ratio {kgWater/kgDryAir}
  Uhall_0MinFreshAir,        !- Design Specification Outdoor Air Object Name
  1.15,                   !- Zone Heating Sizing Factor
  1.15,                   !- Zone Cooling Sizing Factor
  DesignDay,               !- Cooling Design Air Flow Method
  ,                        !- Cooling Design Air Flow Rate {m3/s}
  ,                        !- Cooling Minimum Air Flow per Zone Floor Area {m3/s-m2}
  ,                        !- Cooling Minimum Air Flow {m3/s}
  ,                        !- Cooling Minimum Air Flow Fraction
  DesignDay,               !- Heating Design Air Flow Method
  ,                        !- Heating Design Air Flow Rate {m3/s}
  ,                        !- Heating Maximum Air Flow per Zone Floor Area {m3/s-m2}
  ,                        !- Heating Maximum Air Flow {m3/s}
  ,                        !- Heating Maximum Air Flow Fraction
  ,                        !- Design Specification Zone Air Distribution Object Name
  ,                        !- Account for Dedicated Outdoor Air System
  ,                        !- Dedicated Outdoor Air System Control Strategy
  ,                        !- Dedicated Outdoor Air Low Setpoint Temperature for Design {C}
  ;                        !- Dedicated Outdoor Air High Setpoint Temperature for Design {C}


!------------------------ Thermostat Uhall_0------------------------

Schedule:Constant,
  Uhall_0Heating_SP_Sch, !- Name
  Temperature, !- Schedule Type Limits Name
  20; !- HeatingSetpoint

Schedule:Constant,
  Uhall_0Cooling_SP_Sch, !- Name
  Temperature, !- Schedule Type Limits Name
  26; !- CoolingSetpoint


ZoneControl:Thermostat,
  Uhall_0 Thermostat, !- Name
  Uhall_0,            !- Zone or ZoneList Name
  Uhall_0_ZoneControlTypeSched, !- Control Type Schedule Name
  ThermostatSetpoint:DualSetpoint,  !- Control 1 Object Type
  Dual Setpoint - Zone Uhall_0;  !- Control 1 Name

Schedule:Constant,
  Uhall_0_ZoneControlTypeSched, !- Name
  Any Number, !- Schedule Type Limits Name
  4; !- Hourly Value

ThermostatSetpoint:DualSetpoint,
  Dual Setpoint - Zone Uhall_0,  !- Name
  Uhall_0Heating_SP_Sch,  !- Heating Setpoint Temperature Schedule Name
  Uhall_0Cooling_SP_Sch;  !- Cooling Setpoint Temperature Schedule Name


!------------------------ Humidistat Uhall_0------------------------

ZoneControl:Humidistat,
    Uhall_0Humidistat,                  !-Name
    Uhall_0,                   !-Zone Name
    Uhall_0HumidMin,                !-Humidifying Relative Humidity Setpoint Schedule Name
    Uhall_0HumidMax; !-Dehumidifying Relative Humidity Setpoint Schedule Name

Schedule:Constant,
    Uhall_0HumidMin,                !- Name
    Any Number,              !- Schedule Type Limits Name
    20; !- MinHumidity

Schedule:Constant,
    Uhall_0HumidMax,                !- Name
    Any Number,              !- Schedule Type Limits Name
    80; !- MaxHumidity


!------------------------ OutdoorAir Uhall_0------------------------

DesignSpecification:OutdoorAir,
  Uhall_0MinFreshAir,                  !- Name
  Sum,                     !- Outdoor Air Method
  0.01, !- @Uhall_0-MinFreshAirPerson@ [m3/s-person]
  0.001, !- @Uhall_0-MinFreshAirArea@ [m3/s-m2]
    ,                        !- Outdoor Air Flow per Zone [m3/s]
    ,                        !- Outdoor Air Flow Air Changes per Hour [1/hr]
    AllOn; !- MechVentSchedule



! ------------------------ Fan EMS Objects




! ------------------------ OUTPUTS

Output:Meter:MeterFileOnly,Cooling:Electricity,Hourly;
Output:Meter:MeterFileOnly,Heating:Electricity,Hourly;
Output:Meter:MeterFileOnly,Heating:NaturalGas,Hourly;
Output:Meter:MeterFileOnly,Heating:FuelOilNo1,Hourly;
Output:Meter:MeterFileOnly,Heating:FuelOilNo2,Hourly;
Output:Meter:MeterFileOnly,Heating:Coal,Hourly;
Output:Meter:MeterFileOnly,Heating:Gasoline,Hourly;
Output:Meter:MeterFileOnly,Heating:Propane,Hourly;
Output:Meter:MeterFileOnly,Heating:Diesel,Hourly;
Output:Meter:MeterFileOnly,Heating:OtherFuel1,Hourly;
Output:Meter:MeterFileOnly,Heating:OtherFuel2,Hourly;
Output:Meter:MeterFileOnly,Fans:Electricity,Hourly;
Output:Meter:MeterFileOnly,Pumps:Electricity,Hourly;
Output:Meter:MeterFileOnly,Humidifier:Electricity,Hourly;
Output:Meter:MeterFileOnly,HeatRejection:Electricity,Hourly;
Output:Meter:MeterFileOnly,Heating:EnergyTransfer:Zone:*,Hourly;
Output:Meter:MeterFileOnly,Cooling:EnergyTransfer:Zone:*,Hourly;
Output:Variable,*,Zone People Total Heating Energy,Hourly;
Output:Variable,*,Zone Lights Electricity Energy,Hourly;
Output:Variable,*,Electric Equipment Electricity Energy,Hourly;
Output:Variable,*,Zone Windows Total Transmitted Solar Radiation Energy,Hourly;
Output:Variable,*,Zone Windows Total Heat Gain Energy,Hourly;
Output:Variable,*,Zone Windows Total Heat Loss Energy,Hourly;
Output:Variable,*,Zone Opaque Surface Inside Faces Total Conduction Heat Gain Energy,Hourly;
Output:Variable,*,Zone Opaque Surface Inside Faces Total Conduction Heat Loss Energy,Hourly;
Output:Variable,*,Zone Mean Radiant Temperature,Hourly;
Output:Variable,*,Zone Mean Air Temperature,Hourly;
Output:Variable,*,Zone Operative Temperature,Hourly;
Output:Variable,*,Zone Infiltration Total Heat Loss Energy,Hourly;
Output:Variable,*,Zone Infiltration Total Heat Gain Energy,Hourly;
Output:Variable,*,Zone Ventilation Total Heat Loss Energy,Hourly;
Output:Variable,*,Zone Ventilation Total Heat Gain Energy,Hourly;
Output:Variable,*,Zone Air Relative Humidity,Hourly;
Output:Variable,*,Zone Ideal Loads Supply Air Total Heating Energy,Hourly;
Output:Variable,*,Zone Ideal Loads Supply Air Total Cooling Energy,Hourly;
Output:Variable,*,Zone Ideal Loads Zone Total Heating Energy,Hourly;
Output:Variable,*,Zone Ideal Loads Zone Total Cooling Energy,Hourly;
Output:Variable,*,Zone Ideal Loads Outdoor Air Total Heating Energy,Hourly;
Output:Variable,*,Zone Ideal Loads Outdoor Air Total Cooling Energy,Hourly;
Output:Variable,*,Zone Ideal Loads Heat Recovery Total Heating Energy,Hourly;
Output:Variable,*,Zone Ideal Loads Heat Recovery Total Cooling Energy,Hourly;
Output:Variable,*,Water Use Equipment Heating Energy,Hourly;


Output:VariableDictionary, IDF;
Output:Surfaces:Drawing,DXF,Triangulate3DFace;
Output:Surfaces:List,Details;
!Output:Constructions,Constructions;
!Output:Diagnostics,DisplayExtraWarnings;
!Output:Diagnostics,DisplayUnusedSchedules;
!Output:Diagnostics,DisplayUnusedObjects;
Output:Diagnostics,DisplayAdvancedReportVariables;

Output:Table:SummaryReports,
    EnvelopeSummary,         !- Report 
    AnnualBuildingUtilityPerformanceSummary, !- Report 
    InputVerificationandResultsSummary,  !- Report 
    SourceEnergyEndUseComponentsSummary, !- Report 
    ShadingSummary,!- Report 
    ThermalResilienceSummary;          !- Report 


